 $CONTRL  
     CITYP=GUGA 
     SCFTYP=NONE
     MULT=1 
     ICHARG=0 
     RUNTYP=energy 
     MAXIT=100 
     PP=READ
     UNITS=ANGS 
     QMTTOL=1.0E-06
 $END

 $SYSTEM 
    MWORDS=1000  
    MEMDDI=1000 
 $END

 $GUESS 
     GUESS=MOREAD
     NORB=40
     PUNMO=.T.
     PRTMO=.T.
!     GUESS=HUCKEL
 $END

! $SCF DAMP=.T. SOSCF=.F. SHIFT=.T. RSTRCT=.T. DIIS=.T.  $end


! $MCSCF
!      CISTEP=GUGA
! $END

 $CIDRT 
      NPRT=2
      NFZC=0
      NDOC=4
 !     NAOS=1
 !     NBOS=1
      NVAL=30 
      IEXCIT=1
      GROUP=C1
 $END

 $GUGDIA NSTATE=2 $END

 $GUGDM NFLGDM(1)=0,1 IROOT=2 $END

! $CIS    
!      HAMTYP=SAPS MULT=1 NACORE=0 NSTATE=1 IROOT=1
! $END

 $GUGDIA PRTTOL=0.0000001 $END

 $DATA
Silane CIS calculation
C1
Si 14 0.0000  0.0000  0.0000
S  10
  1  9.998274  0.002894
  2  5.517644 -0.014523
  3  3.044965  0.077634
  4  1.680393 -0.224022
  5  0.927341 -0.149080
  6  0.511762  0.085944
  7  0.282421  0.355394
  8  0.155857  0.445219
  9  0.086011  0.267230
 10  0.047466  0.060787
S   1                     
  1  0.488504  1.000000
S   1                     
  1  0.199457  1.000000
S   1                     
  1  0.081439  1.000000
P  10                     
  1  5.027868 -0.003242 
  2  2.867751  0.010649
  3  1.635683 -0.049761
  4  0.932947 -0.000017
  5  0.532126  0.106060
  6  0.303509  0.236202
  7  0.173113  0.310665
  8  0.098739  0.294696
  9  0.056318  0.153898
 10  0.032122  0.042337
P   1                     
  1  1.225790  1.000000
P   1                     
  1  0.501364  1.000000
P   1                     
  1  0.205064  1.000000
D   1                     
  1  0.997003  1.000000
D   1                     
  1  0.365942  1.000000
D   1                     
  1  0.134316  1.000000
F   1                     
  1  0.549116  1.000000
F   1                     
  1  0.214998  1.000000
G   1                     
  1  0.459547  1.000000

H 1  0.8544  0.8544  0.8544
S  8
  1      23.843185  0.00411490
  2      10.212443  0.01046440
  3       4.374164  0.02801110
  4       1.873529  0.07588620
  5       0.802465  0.18210620
  6       0.343709  0.34852140
  7       0.147217  0.37823130
  8       0.063055  0.11642410
S  1
  1       0.081856  1.00000000
S  1
  1       0.233254  1.00000000
S  1
  1       0.664673  1.00000000
P  1
  1       0.284469  1.00000000
P  1
  1       0.847159  1.00000000
P  1
  1       2.522868  1.00000000
D  1
  1       0.665279  1.00000000
D  1
  1       2.048739  1.00000000
F  1
  1       1.421460  1.00000000

H 1 -0.8544 -0.8544  0.8544
S  8
  1      23.843185  0.00411490
  2      10.212443  0.01046440
  3       4.374164  0.02801110
  4       1.873529  0.07588620
  5       0.802465  0.18210620
  6       0.343709  0.34852140
  7       0.147217  0.37823130
  8       0.063055  0.11642410
S  1
  1       0.081856  1.00000000
S  1
  1       0.233254  1.00000000
S  1
  1       0.664673  1.00000000
P  1
  1       0.284469  1.00000000
P  1
  1       0.847159  1.00000000
P  1
  1       2.522868  1.00000000
D  1
  1       0.665279  1.00000000
D  1
  1       2.048739  1.00000000
F  1
  1       1.421460  1.00000000

H 1 -0.8544  0.8544 -0.8544
S  8
  1      23.843185  0.00411490
  2      10.212443  0.01046440
  3       4.374164  0.02801110
  4       1.873529  0.07588620
  5       0.802465  0.18210620
  6       0.343709  0.34852140
  7       0.147217  0.37823130
  8       0.063055  0.11642410
S  1
  1       0.081856  1.00000000
S  1
  1       0.233254  1.00000000
S  1
  1       0.664673  1.00000000
P  1
  1       0.284469  1.00000000
P  1
  1       0.847159  1.00000000
P  1
  1       2.522868  1.00000000
D  1
  1       0.665279  1.00000000
D  1
  1       2.048739  1.00000000
F  1
  1       1.421460  1.00000000

H 1  0.8544 -0.8544 -0.8544
S  8
  1      23.843185  0.00411490
  2      10.212443  0.01046440
  3       4.374164  0.02801110
  4       1.873529  0.07588620
  5       0.802465  0.18210620
  6       0.343709  0.34852140
  7       0.147217  0.37823130
  8       0.063055  0.11642410
S  1
  1       0.081856  1.00000000
S  1
  1       0.233254  1.00000000
S  1
  1       0.664673  1.00000000
P  1
  1       0.284469  1.00000000
P  1
  1       0.847159  1.00000000
P  1
  1       2.522868  1.00000000
D  1
  1       0.665279  1.00000000
D  1
  1       2.048739  1.00000000
F  1
  1       1.421460  1.00000000

 $END

 $ECP
Si-ccECP GEN 10 2
3
   4.000000 1 5.168316
  20.673264 3 8.861690
 -14.818174 2 3.933474
2
  14.832760 2 9.447023
  26.349664 2 2.553812
2
   7.621400 2 3.660001
  10.331583 2 1.903653
H-ccECP GEN 0 1
3
1.00000000000000    1 21.24359508259891 
21.24359508259891   3 21.24359508259891 
-10.85192405303825  2 21.77696655044365 
1
0.00000000000000    2 1.000000000000000 
H-ccECP
H-ccECP
H-ccECP

 $END
 $VEC   
 1  1 9.60598759E-01 9.78871201E-02-1.59854825E-01-2.20267995E-01 3.80055803E-07
 1  2 4.17983278E-05 8.35982504E-05 7.62702084E-09 4.13373678E-06 8.26752540E-06
 1  3-7.70878470E-08-1.32449876E-05-2.64904041E-05-3.30304703E-07 2.11926556E-05
 1  4 4.23852756E-05-1.38989565E-02-1.38989845E-02-1.38990144E-02 2.47003790E-06
 1  5 1.23498898E-06-6.89660108E-09 1.75583538E-03 1.75593553E-03 1.75604074E-03
 1  6 1.04521554E-05 5.22623541E-06-7.58749297E-08 1.73781408E-02 1.73781693E-02
 1  7 1.73781923E-02 5.60095602E-05 2.80046225E-05-6.43256089E-08-5.00579594E-08
 1  8 3.48612227E-06 6.97208131E-06 3.86781740E-06 7.81472859E-06-5.29636616E-08
 1  9 7.81472841E-06-5.43299903E-08 3.94703261E-06 1.59414096E-02-5.08516204E-08
 1 10-4.63091885E-06-9.26220978E-06 9.78384030E-06 1.97201179E-05-8.10816589E-08
 1 11 1.97200830E-05-8.57017160E-08 9.93634625E-06 1.23519819E-02 5.12077775E-03
 1 12 5.12070811E-03 5.12063555E-03 9.82933747E-06 4.83779860E-06 9.82932731E-06
 1 13-3.36052954E-08 4.99142698E-06-3.63424964E-08 9.47676417E-03 9.47674671E-03
 1 14 9.47672901E-03-4.91438642E-08 6.10131446E-06 1.22026517E-05 3.32066707E-01
 1 15-7.50406314E-02-9.18944466E-02-2.36023226E-02-1.63200617E-03-1.62997217E-03
 1 16-1.62794363E-03-2.30047367E-03-2.30205663E-03-2.30362135E-03-9.19398690E-04
 1 17-9.19018213E-04-9.18642275E-04 7.78136308E-04 7.78421703E-04 7.78704144E-04
 1 18-5.72556606E-04-5.72705210E-04-5.72854285E-04 3.77256355E-04 3.77239689E-04
 1 19 3.77223409E-04 1.53164593E-04 1.53204476E-04 1.53244505E-04 1.41017893E-04
 1 20 1.41533301E-04 1.42041570E-04 1.16349578E-04 1.16623629E-04 1.16037614E-04
 1 21 1.16587086E-04 1.16001145E-04 1.16278565E-04 1.24289946E-04 3.32067718E-01
 1 22-7.50199556E-02-9.18255750E-02-2.36009634E-02 1.64589699E-03 1.64795480E-03
 1 23-1.64197048E-03 2.31165075E-03 2.31003438E-03-2.31326710E-03 9.16752187E-04
 1 24 9.17141058E-04-9.16395983E-04 7.79635851E-04 7.79353139E-04 7.80123290E-04
 1 25-5.69783563E-04 5.70295953E-04 5.70145207E-04 3.77144011E-04 3.77160112E-04
 1 26 3.77118368E-04 1.52915359E-04-1.53043043E-04-1.53002575E-04-1.45010398E-04
 1 27-1.44480680E-04 1.45351694E-04-1.17524722E-04 1.18057023E-04-1.17841872E-04
 1 28 1.18092565E-04-1.17754348E-04-1.17470744E-04 1.24176058E-04 3.32068676E-01
 1 29-7.49995359E-02-9.17562008E-02-2.35995674E-02 1.65997515E-03-1.65796410E-03
 1 30 1.66396807E-03 2.32152849E-03-2.32305607E-03 2.31982772E-03 9.14448189E-04
 1 31-9.14081694E-04 9.14825374E-04 7.81058534E-04 7.81339585E-04 7.80575541E-04
 1 32 5.67710275E-04-5.67194626E-04 5.67341298E-04 3.77035219E-04 3.77019054E-04
 1 33 3.77059706E-04-1.52839360E-04 1.52711004E-04-1.52750518E-04-1.48413197E-04
 1 34 1.48906032E-04-1.48037329E-04 1.19565951E-04-1.19034898E-04-1.19264606E-04
 1 35-1.18998355E-04-1.19350648E-04 1.19617414E-04 1.24059557E-04 3.32069579E-01
 1 36-7.49793738E-02-9.16863243E-02-2.35981344E-02-1.67402203E-03 1.67605698E-03
 1 37 1.67809738E-03-2.33307855E-03 2.33151745E-03 2.32993817E-03-9.11709126E-04
 1 38 9.12084046E-04 9.12463492E-04 7.82561458E-04 7.82283110E-04 7.82001799E-04
 1 39 5.64875442E-04 5.64726622E-04-5.64578269E-04 3.76915570E-04 3.76931166E-04
 1 40 3.76947150E-04-1.52584478E-04-1.52544378E-04 1.52504423E-04 1.52554606E-04
 1 41-1.52047409E-04-1.51533098E-04-1.20824906E-04-1.20548574E-04 1.21131458E-04
 1 42-1.20584115E-04 1.21167076E-04-1.20894102E-04 1.23940426E-04
 2  1-8.13348223E-06-1.03136216E-04 1.73228414E-04 2.17316747E-04 1.66265017E-01
 2  2-1.54282816E-01-6.76156936E-02-2.50404132E-02 2.32305004E-02 1.01706684E-02
 2  3 6.80703278E-02-6.31476715E-02-2.76433632E-02 1.19701162E-01-1.11063974E-01
 2  4-4.86572432E-02-7.70089702E-07-7.63272885E-07-7.90122135E-07-9.55112511E-03
 2  5-2.18045270E-02 2.35009234E-02-2.61583917E-05-2.61760599E-05-2.61272247E-05
 2  6-2.52845475E-03-5.76993287E-03 6.21853394E-03-3.68373719E-05-3.67609458E-05
 2  7-3.72220031E-05-5.40410345E-03-1.22818112E-02 1.32253104E-02-1.04746994E-02
 2  8 9.71813387E-03 4.25465689E-03 4.34268102E-04 1.88151526E-04-4.68764721E-04
 2  9 1.88148081E-04-4.68818479E-04 4.34371442E-04 4.00669765E-06-1.18924079E-02
 2 10 1.10377226E-02 4.84065487E-03 3.29937005E-03 1.43757356E-03-3.55944060E-03
 2 11 1.43754995E-03-3.55983985E-03 3.30014096E-03 2.21843638E-05-5.87385575E-06
 2 12-5.87997370E-06-6.01119114E-06-4.33590871E-03-9.88991765E-03-4.33592521E-03
 2 13 1.06574444E-02-9.88960876E-03 1.06572870E-02 7.80698653E-07 6.48760932E-07
 2 14 6.40165348E-07 7.12917156E-03-6.61656771E-03-2.90290148E-03-1.04296401E-01
 2 15 9.53092435E-03 1.59095918E-02 4.00002701E-03 7.88112511E-03-3.96966592E-03
 2 16-7.66013510E-04 3.21149214E-03-6.54713706E-04 3.92244336E-04 5.65829632E-04
 2 17-3.22862921E-04-8.27696726E-05-1.48861980E-03 4.52162139E-04-7.29858821E-05
 2 18-5.66797751E-04-1.04761863E-03 7.30595951E-04-9.89012722E-05 4.09087494E-05
 2 19 3.10018442E-06-6.16142623E-05-7.42057953E-05-2.77997308E-05-1.40050700E-04
 2 20-5.44985191E-05-7.80151676E-05 2.22658445E-05 6.17808425E-05 1.25847457E-05
 2 21-9.47611154E-05 5.49570835E-05-9.19029843E-05 7.86113847E-05-1.49376685E-01
 2 22 1.36398120E-02 2.27593432E-02 5.72933390E-03 3.65932866E-03-8.19147506E-03
 2 23-1.24289860E-05 2.74268443E-04-3.59200551E-03 9.17975008E-04 3.11760912E-04
 2 24-5.76914860E-04-3.84877603E-05 3.16240091E-04-1.62455606E-03-2.81828136E-04
 2 25-6.50459283E-04-5.80350595E-04 1.19787687E-03 3.46998547E-05-1.05108681E-04
 2 26-8.32097363E-06-8.39570634E-05 5.18924409E-05 9.82963121E-05 9.40330598E-05
 2 27 1.79613615E-04-1.20875967E-04-5.59350245E-06-9.63069271E-05-1.52897296E-05
 2 28 6.02369790E-05 9.29876606E-05-5.38594343E-05 1.12508740E-04-4.74905985E-01
 2 29 4.33768016E-02 7.23549232E-02 1.82191053E-02-1.75506183E-03 2.19783651E-03
 2 30-1.04018441E-02-3.50960879E-03 3.65504099E-03-6.32883829E-03-1.07768160E-05
 2 31 4.39196318E-05-6.59378574E-04-1.18881593E-03-1.26156855E-03-2.60426821E-03
 2 32 5.01052396E-04-1.73187515E-03 1.79837724E-03-4.79225905E-05-5.31638564E-05
 2 33-1.49954693E-04 2.26139511E-04-2.58196556E-04 2.59958917E-04 3.99760882E-04
 2 34-4.03152657E-04 4.61811337E-04-1.02756672E-04 8.32418636E-07 1.02276515E-04
 2 35-5.04370271E-06-5.99230541E-06 1.13879772E-05 3.57352657E-04 7.28581564E-01
 2 36-6.66291609E-02-1.11174541E-01-2.79605192E-02-5.93522253E-03 6.37804986E-03
 2 37 9.58066558E-03-6.44569137E-03 6.59112699E-03 7.63875754E-03-2.64886900E-04
 2 38 2.98028772E-04 5.37955536E-04 2.35799355E-03 2.43075557E-03 2.95559999E-03
 2 39-1.71391475E-03-2.19455201E-03 2.26106268E-03 1.12785935E-04 1.18024082E-04
 2 40 1.55885710E-04-3.71932964E-04-3.84558357E-04 3.86319558E-04 6.34312264E-04
 2 41-6.37708479E-04-6.61502143E-04-7.55058078E-05-3.61156680E-05 7.50248405E-05
 2 42-3.02392996E-05 3.26778595E-05-2.72812940E-05-5.47815036E-04
 3  1 8.78211095E-06 1.13369595E-04-1.76336752E-04-2.67303884E-04-1.14632931E-02
 3  2-1.05141331E-01 2.11749362E-01 1.73784433E-03 1.58321048E-02-3.18808271E-02
 3  3-4.72830365E-03-4.30369209E-02 8.66609154E-02-8.27225042E-03-7.56931979E-02
 3  4 1.52431060E-01 9.19423753E-07 9.24528987E-07 8.06681793E-07 2.99250973E-02
 3  5-1.48600396E-02-1.62569973E-03 2.89518436E-05 2.89384968E-05 2.91720323E-05
 3  6 7.91932169E-03-3.93259405E-03-4.29112907E-04 4.74022603E-05 4.74570692E-05
 3  7 4.55210537E-05 1.68606045E-02-8.36853250E-03-8.87875923E-04 7.27075685E-04
 3  8 6.62277824E-03-1.33366964E-02 2.95783929E-04-5.95365883E-04 3.48704478E-05
 3  9-5.95365285E-04 3.46441566E-05 2.95791836E-04-4.29282407E-06 8.16139061E-04
 3 10 7.52149936E-03-1.51492899E-02 2.24912435E-03-4.52732505E-03 2.55845586E-04
 3 11-4.52732055E-03 2.54202613E-04 2.24913686E-03-2.38276133E-05 6.75787738E-06
 3 12 6.75464698E-06 6.30483106E-06 1.35737713E-02-6.73979862E-03 1.35737735E-02
 3 13-7.32604492E-04-6.73978526E-03-7.33279118E-04-3.38352174E-07-7.78708280E-07
 3 14-7.84306870E-07-4.87950240E-04-4.50943528E-03 9.08218901E-03 1.78471032E-01
 3 15-1.63062800E-02-2.72196643E-02-6.84582910E-03-3.38984665E-03-6.85397080E-03
 3 16 4.86197097E-03-2.20678048E-03-3.33418886E-03 4.86632142E-04-2.10301802E-04
 3 17-4.70303955E-04 4.08377240E-04 8.94670606E-04 1.46125404E-03-4.57080044E-04
 3 18 1.50290291E-03-2.54917908E-04 2.64688489E-04 5.02340289E-05 9.10790562E-05
 3 19-4.71221612E-05 1.19377292E-04 7.35248125E-05 8.70220519E-05 1.68271428E-04
 3 20 1.92687794E-04 1.08398551E-04-7.34433724E-05 7.18776254E-05-7.59094440E-05
 3 21 2.61994123E-05 7.88049679E-05 3.55945766E-05-1.34411547E-04 6.16432618E-01
 3 22-5.63153587E-02-9.39552668E-02-2.36495355E-02 9.82539133E-03 6.36128811E-03
 3 23-2.42039942E-03 7.01471991E-03 5.88729687E-03-4.60238028E-03 5.81617065E-04
 3 24 3.21618558E-04-2.59736297E-05 2.77926754E-03 2.21268475E-03 1.56769225E-03
 3 25 2.31038695E-03-1.71917386E-03-1.19956761E-03 1.51433749E-04 1.10587662E-04
 3 26 6.40569921E-05 3.36906767E-04-3.21480232E-04-3.07983117E-04-5.71776232E-04
 3 27-5.47354929E-04 5.19083700E-04 1.04790416E-05 3.84224725E-05 8.00951363E-06
 3 28 8.41011497E-05-4.39918545E-05-8.71987545E-05-4.63803549E-04-5.73207151E-01
 3 29 5.24382973E-02 8.75014753E-02 2.19994440E-02-9.91911416E-03 5.61007820E-03
 3 30-1.66945197E-03-6.78725786E-03 5.37809375E-03-4.09182073E-03-6.03062083E-04
 3 31 2.80195997E-04 1.51144593E-05-2.71592198E-03-2.00984714E-03-1.36464229E-03
 3 32 2.22650280E-03-1.63526305E-03 9.88626023E-04-1.50937187E-04-9.99959644E-05
 3 33-5.34923059E-05 3.15730876E-04-3.00288942E-04 2.83304328E-04 5.36973738E-04
 3 34-5.05068271E-04 4.76290320E-04 1.79746402E-05 3.07425363E-05-1.40533806E-05
 3 35 8.77077974E-05 3.79920338E-05-9.10379173E-05 4.30936339E-04-2.21697538E-01
 3 36 2.02825976E-02 3.38292973E-02 8.50927633E-03 3.24941177E-03-7.55843904E-03
 3 37 4.15343069E-03 2.43556593E-03-3.84476001E-03-2.14226856E-05 1.88259932E-04
 3 38-5.11118809E-04 3.66939223E-04-9.53630246E-04-1.65970946E-03 2.57458795E-04
 3 39 1.58153123E-03-1.75575973E-04-4.71063804E-04-5.14555870E-05-1.02396836E-04
 3 40 3.60116044E-05 1.40906493E-04 9.49253024E-05-1.11909393E-04-2.04632434E-04
 3 41 2.36548980E-04 1.51230039E-04-6.47889245E-05 8.00564363E-05 6.87164571E-05
 3 42 2.30904129E-05-8.59003357E-05 3.28603229E-05 1.66566307E-04
 4  1 8.33062726E-06 1.09689373E-04-1.55862796E-04-2.88402616E-04 1.68045734E-01
 4  2 1.45474177E-01 8.13429969E-02-2.53000810E-02-2.19038801E-02-1.22558046E-02
 4  3 6.87736778E-02 5.95418618E-02 3.33181673E-02 1.20975337E-01 1.04727863E-01
 4  4 5.85727205E-02 8.87852224E-07 8.80317405E-07 8.97639943E-07 1.14999086E-02
 4  5 2.05596801E-02 2.37488331E-02 2.83610697E-05 2.83808197E-05 2.83495956E-05
 4  6 3.04309855E-03 5.44194464E-03 6.28656895E-03 5.16987843E-05 5.16200441E-05
 4  7 5.19511619E-05 6.45856610E-03 1.15811289E-02 1.33847810E-02-1.05821955E-02
 4  8-9.16228271E-03-5.12672005E-03-4.08707253E-04-2.30293409E-04-4.71043327E-04
 4  9-2.30295820E-04-4.70993899E-04-4.08575209E-04-4.03686376E-06-1.20210697E-02
 4 10-1.04063157E-02-5.81606281E-03-3.11133697E-03-1.74638788E-03-3.59046656E-03
 4 11-1.74640825E-03-3.59011767E-03-3.11040203E-03-2.24703469E-05 6.45968168E-06
 4 12 6.46325459E-06 6.55435981E-06 5.21292218E-03 9.32495231E-03 5.21290668E-03
 4 13 1.07728049E-02 9.32533497E-03 1.07729443E-02-5.46390301E-07-4.55161362E-07
 4 14-4.47625316E-07 7.20932250E-03 6.23982597E-03 3.48635731E-03 7.41241194E-01
 4 15-6.77274220E-02-1.13015601E-01-2.84393319E-02-6.10256238E-03-6.93747633E-03
 4 16-9.30910476E-03-6.57388947E-03-6.84534586E-03-7.61696648E-03-2.72242412E-04
 4 17-3.34950123E-04-5.12976845E-04 2.40836691E-03 2.54488197E-03 2.93273237E-03
 4 18 1.81577433E-03 2.17148891E-03 2.29671807E-03 1.14919756E-04 1.24763567E-04
 4 19 1.52723908E-04 3.80185001E-04 3.89421224E-04 3.92669087E-04 6.45826124E-04
 4 20 6.51627536E-04 6.68288369E-04 7.07199899E-05 4.11119292E-05 7.01691121E-05
 4 21 3.01068960E-05 3.89019811E-05 2.84492963E-05-5.57624614E-04-4.35735084E-01
 4 22 3.98698018E-02 6.65282342E-02 1.67245531E-02-1.00356984E-03-1.83853023E-03
 4 23 1.02214217E-02-3.02421401E-03-3.29567545E-03 6.03409203E-03 3.09277908E-05
 4 24-3.17783071E-05 6.60034968E-04-9.94101539E-04-1.13062291E-03-2.50349725E-03
 4 25-3.48260497E-04 1.60602338E-03 1.73126126E-03-3.76049732E-05-4.74461292E-05
 4 26-1.46484265E-04-2.04848486E-04 2.37804248E-04 2.41050871E-04 3.59916505E-04
 4 27 3.65723814E-04-4.27229877E-04 1.02397547E-04 1.07767684E-06 1.01845348E-04
 4 28 1.20827262E-05-8.89896256E-06-1.93518549E-05 3.27526655E-04-1.95104701E-01
 4 29 1.78558165E-02 2.97823259E-02 7.48946461E-03 2.98166921E-03 8.60632426E-03
 4 30-2.23401574E-04-2.38451873E-04 4.02027993E-03-1.28216893E-03 2.71928571E-04
 4 31 5.96980341E-04 3.13528276E-05 1.16164018E-04-1.78053487E-03-4.07712644E-04
 4 32 8.09220966E-04 4.48535575E-04 1.28988679E-03 2.36756498E-05-1.13256384E-04
 4 33-1.42104980E-05 1.08838205E-04-7.58855184E-05 1.21368630E-04 1.37612306E-04
 4 34-2.21735937E-04 1.60348183E-04 4.52422332E-06 9.89946228E-05-1.40346332E-05
 4 35-5.39633925E-05 9.67002785E-05 4.67480869E-05 1.46556374E-04-1.10400628E-01
 4 36 1.01078258E-02 1.68455646E-02 4.23835014E-03 8.03801156E-03 3.54998565E-03
 4 37 1.17917991E-03 3.31212612E-03 4.69767170E-04-3.02379146E-04 5.74610253E-04
 4 38 2.94282530E-04 1.16386405E-04-1.52609952E-03 3.70611494E-04-1.69992227E-05
 4 39 6.53931884E-04 1.00950317E-03 7.28931193E-04-1.01541594E-04 3.53892360E-05
 4 40 7.38782623E-06 6.67087645E-05 7.59706624E-05-3.04896367E-05-1.49671525E-04
 4 41 6.55211695E-05 8.24006542E-05-2.61311808E-05-5.56397942E-05 1.66064544E-05
 4 42 9.73200162E-05 4.78525606E-05 9.55835987E-05 8.28633110E-05
 5  1 1.20033847E-04 2.71280842E-04-6.57010742E-05-2.51239403E-04 3.97106316E+00
 5  2-1.91826618E-01-7.84841033E-02 2.17542606E-01-1.05090548E-02-4.30597991E-03
 5  3-8.98747639E-01 4.34173587E-02 1.77618782E-02-1.23324542E+00 5.95666554E-02
 5  4 2.42916692E-02 7.23306036E-06 7.23208345E-06 7.25115931E-06 1.27810378E-03
 5  5 3.12973162E-03-6.47669543E-02 1.34559100E-04 1.34567018E-04 1.34539144E-04
 5  6 4.26313705E-04 1.12010603E-03-2.32929363E-02 2.79923491E-04 2.79886182E-04
 5  7 2.80323806E-04 8.15875533E-04 2.20046665E-03-4.53174920E-02-3.82758163E-02
 5  8 1.84800840E-03 7.36819480E-04 8.71252040E-04 3.40316599E-04-1.80351855E-02
 5  9 3.40311807E-04-1.80352174E-02 8.69658339E-04 5.88524685E-06-4.16278912E-01
 5 10 2.01042370E-02 8.19914275E-03 7.67592638E-03 3.10077677E-03-1.58662346E-01
 5 11 3.10041500E-03-1.58662388E-01 7.66449103E-03 1.05647961E-05 4.66149203E-06
 5 12 4.64851711E-06 4.78388317E-06 5.76990613E-04 1.43395542E-03 5.76891084E-04
 5 13-2.95543335E-02 1.42919548E-03-2.95543777E-02 6.27150364E-06 6.42250672E-06
 5 14 6.41077062E-06 8.30655899E-04-4.13951767E-05-2.79252802E-05-2.23620907E-01
 5 15-7.07264222E-01-1.27642172E-02-6.89632449E-03 4.45935707E-02-3.87791269E-03
 5 16-2.55947381E-03 1.84800870E-02 4.96548749E-03 5.33639198E-03-1.51493486E-03
 5 17-2.80939258E-03-2.77478081E-03-7.71824866E-03-5.58114642E-03-5.63985185E-03
 5 18-4.02443990E-03-4.02598549E-03-3.97220316E-03-5.92722489E-04-5.21772238E-04
 5 19-5.23646406E-04 2.89874746E-04 2.90597488E-04 2.64792193E-04-3.77689895E-03
 5 20-1.93411500E-03-1.98540659E-03-1.02514465E-03-1.04778074E-03-2.02964227E-03
 5 21-1.23857164E-03-2.02439627E-03-1.21070826E-03-4.49604377E-04 2.32954465E-01
 5 22 7.36744993E-01 1.36047577E-02 7.18957339E-03 4.45675057E-02-3.90443262E-03
 5 23 7.66203788E-04 1.87506857E-02 5.23624261E-03-6.11870948E-03-1.63871571E-03
 5 24-2.93321352E-03 2.85048679E-03 7.94472368E-03 5.80752654E-03 5.94410831E-03
 5 25 4.20091594E-03-4.20228000E-03-4.14843421E-03 6.11890799E-04 5.40953446E-04
 5 26 5.45893280E-04-3.02238053E-04 3.03486257E-04 2.77671094E-04-3.87589923E-03
 5 27-2.03318050E-03 2.15470097E-03-1.08355893E-03 1.13720205E-03-2.08803323E-03
 5 28 1.32800015E-03-2.07576671E-03-1.26210970E-03 4.68146373E-04 2.46657242E-01
 5 29 7.80039925E-01 1.41460333E-02 7.62884491E-03 4.44213728E-02-3.94481382E-04
 5 30-2.74315292E-03 1.90800919E-02-6.81257553E-03 5.93025096E-03-1.80411711E-03
 5 31 2.97954814E-03-3.06231907E-03 8.29439806E-03 6.34830928E-03 6.21193183E-03
 5 32-4.43896479E-03 4.43774061E-03-4.38429833E-03 6.43180275E-04 5.79698582E-04
 5 33 5.74722456E-04 3.19655260E-04-3.18434909E-04 2.94232415E-04-3.99492811E-03
 5 34 2.32203471E-03-2.20060826E-03 1.23280479E-03-1.17920723E-03-2.14514607E-03
 5 35-1.35300299E-03-2.15739618E-03 1.41883078E-03 4.96432806E-04-2.56218590E-01
 5 36-8.10568097E-01-1.49159246E-02-7.91023195E-03 4.44298986E-02-4.02719320E-04
 5 37 9.16232431E-04 1.93092924E-02-7.04169290E-03-6.67101106E-03-1.91956260E-03
 5 38 3.09497204E-03 3.12963542E-03-8.54587173E-03-6.59970674E-03-6.54087953E-03
 5 39 4.62309844E-03 4.62147383E-03-4.56798067E-03-6.66370503E-04-6.02898972E-04
 5 40-6.01047070E-04-3.32631911E-04-3.31891384E-04 3.07681242E-04-4.07690082E-03
 5 41 2.40397154E-03 2.35274938E-03 1.28319654E-03 1.26058349E-03-2.19555747E-03
 5 42 1.43438531E-03-2.20080775E-03 1.46222902E-03-5.14276740E-04
 6  1 1.59394205E-04 7.28375089E-04-2.27540394E-03 9.68026166E-04 4.92158741E-02
 6  2-5.90137363E-01 3.93260168E+00 2.70235805E-03-3.23296925E-02 2.15436396E-01
 6  3-1.11362163E-02 1.33566494E-01-8.90077276E-01-1.52051530E-02 1.83247641E-01
 6  4-1.22115214E+00 4.48290986E-06 4.48730780E-06 4.74990297E-06-6.41264512E-02
 6  5 9.62279876E-03-7.99603262E-04 1.62840869E-04 1.62840354E-04 1.62334773E-04
 6  6-2.30632489E-02 3.45875532E-03-2.58647597E-04-1.77131371E-04-1.77099428E-04
 6  7-1.68295912E-04-4.47436229E-02 6.70624886E-03-4.69246153E-04-4.55468260E-04
 6  8 5.68833489E-03-3.79222848E-02 2.67971758E-03-1.78666958E-02-2.08826757E-04
 6  9-1.78666960E-02-2.07007059E-04 2.67948045E-03-2.56960930E-05-5.13528511E-03
 6 10 6.18668945E-02-4.12300152E-01 2.35730496E-02-1.57112908E-01-1.93181516E-03
 6 11-1.57112868E-01-1.91910058E-03 2.35715747E-02-1.33560176E-04 3.26995830E-05
 6 12 3.26965033E-05 3.50006156E-05-2.92514893E-02 4.38915221E-03-2.92514783E-02
 6 13-3.58091761E-04 4.38850468E-03-3.52746210E-04 6.21994992E-06 8.79592501E-06
 6 14 8.78624302E-06 2.10801599E-05-1.26219322E-04 8.35742919E-04-2.04896463E-01
 6 15-6.48163015E-01-1.15951419E-02-6.33031589E-03-9.61100684E-04-8.40742774E-03
 6 16 4.42565817E-02 5.29761830E-03 3.22554795E-03 1.79062301E-02-2.50790394E-03
 6 17-2.70736696E-03-1.30131482E-03-5.23242079E-03-4.90493291E-03-7.22540179E-03
 6 18-3.63368722E-03-3.69291883E-03-3.68463481E-03-4.82157600E-04-4.71202612E-04
 6 19-5.48309269E-04 2.40478092E-04 2.68705569E-04 2.64735750E-04-1.87718973E-03
 6 20-1.59533813E-03-3.59777217E-03-1.02643328E-03-1.91046983E-03-1.18011474E-03
 6 21-1.93969094E-03-9.72990307E-04-8.48554771E-04-4.12626568E-04-2.70248029E-01
 6 22-8.54838578E-01-1.51612421E-02-8.36148684E-03 2.63269932E-03-4.81362629E-03
 6 23 4.37426609E-02-6.60303056E-03-8.67505490E-03 1.95315121E-02 3.33976107E-03
 6 24 3.14028525E-03-2.10296781E-03-6.83988378E-03-7.16736820E-03-8.88569311E-03
 6 25-4.80126310E-03 4.84694908E-03 4.85523376E-03-6.33300873E-04-6.44256389E-04
 6 26-7.00734163E-04 3.24174380E-04-3.45286859E-04-3.49257101E-04 2.42010350E-03
 6 27 2.70193374E-03-4.18484982E-03 1.62320560E-03-2.27772615E-03 1.46953282E-03
 6 28-2.24850537E-03 1.31605649E-03 1.44048345E-03-5.44752213E-04 2.76055906E-01
 6 29 8.73275150E-01 1.66556639E-02 8.50213935E-03-1.29109963E-03-5.00936372E-03
 6 30 4.39373582E-02 7.09924261E-03-8.85742966E-03 1.96992953E-02-3.38939778E-03
 6 31 3.22174733E-03-2.18069719E-03 7.01943325E-03 7.29824843E-03 9.01456760E-03
 6 32-4.94058051E-03 4.98534263E-03-4.99308975E-03 6.45337404E-04 6.54374380E-04
 6 33 7.11098586E-04 3.35376951E-04-3.56476383E-04 3.59975237E-04-2.52990111E-03
 6 34 2.77037689E-03-4.24723892E-03 1.65621157E-03-2.30833106E-03-1.52519810E-03
 6 35-2.28344303E-03-1.37208206E-03 1.47822654E-03 5.53814186E-04 1.98842991E-01
 6 36 6.28962832E-01 1.18898820E-02 6.13354314E-03 1.94684010E-03-8.24736071E-03
 6 37 4.44421985E-02-4.82752892E-03 3.06936886E-03 1.77497961E-02 2.46487595E-03
 6 38-2.63253369E-03-1.22659590E-03 5.00919828E-03 4.73036713E-03 7.05832165E-03
 6 39-3.53657190E-03-3.60056176E-03 3.59280772E-03 4.62826658E-04 4.53791804E-04
 6 40 5.29689386E-04 2.33828120E-04 2.62853625E-04-2.59353873E-04 1.78059403E-03
 6 41-1.54013127E-03-3.54316213E-03-9.96107545E-04-1.88029444E-03 1.12711697E-03
 6 42-1.90518367E-03 9.19285858E-04-8.13146651E-04 3.99349720E-04
 7  1 1.17116496E-04 5.23641100E-04-1.60318111E-03 6.70315109E-04 2.01342200E-01
 7  2 3.92812558E+00 5.86903641E-01 1.10305267E-02 2.15192494E-01 3.21497639E-02
 7  3-4.55670519E-02-8.89054295E-01-1.32834024E-01-6.25173749E-02-1.21979027E+00
 7  4-1.82276852E-01 3.61139920E-06 3.58191563E-06 3.36248594E-06-9.57217637E-03
 7  5-6.40565556E-02-3.28177690E-03 1.19906877E-04 1.19910628E-04 1.20286170E-04
 7  6-3.44915727E-03-2.30317494E-02-1.18120259E-03-1.08429848E-04-1.08661840E-04
 7  7-1.15358982E-04-6.71322537E-03-4.47080203E-02-2.26658720E-03-1.93920124E-03
 7  8-3.78699082E-02-5.66473006E-03-1.78412051E-02-2.67083057E-03-9.12238317E-04
 7  9-2.67082934E-03-9.13591509E-04-1.78413955E-02-1.78282166E-05-2.11090118E-02
 7 10-4.11811072E-01-6.15366031E-02-1.56927040E-01-2.34617589E-02-8.02672673E-03
 7 11-2.34617279E-02-8.03645693E-03-1.56928081E-01-9.35050320E-05 2.42826062E-05
 7 12 2.43013016E-05 2.26208193E-05-4.37025435E-03-2.92204729E-02-4.37024651E-03
 7 13-1.49017550E-03-2.92209537E-02-1.49422221E-03 7.05271519E-06 5.21067274E-06
 7 14 5.27308208E-06 4.30261955E-05 8.33572995E-04 1.19696316E-04-2.84914754E-01
 7 15-9.01189336E-01-1.62335648E-02-8.79675235E-03 2.30925208E-04 4.36259014E-02
 7 16 4.71832086E-03 7.79395465E-03 1.98918085E-02 9.04829149E-03-3.44523885E-03
 7 17-2.28667813E-03-3.32601413E-03-7.33961682E-03-9.25208859E-03-7.53787248E-03
 7 18-5.11813354E-03-5.07432720E-03-5.12277212E-03-6.72059089E-04-7.35558823E-04
 7 19-6.78574371E-04 3.65060613E-04 3.44203762E-04 3.67393563E-04-2.66841501E-03
 7 20-4.31854673E-03-2.84015118E-03-2.34807393E-03-1.69539672E-03-1.44883011E-03
 7 21-1.52468830E-03-1.60184285E-03-2.33036454E-03-5.73503790E-04 2.13922230E-01
 7 22 6.76654782E-01 1.28241654E-02 6.58728267E-03 8.88370184E-04 4.42835644E-02
 7 23 8.30170253E-03 6.02880345E-03 1.81263820E-02-3.47593014E-03-2.57511507E-03
 7 24-1.41647918E-03 2.82163090E-03 5.52669875E-03 7.43921842E-03 5.11948060E-03
 7 25 3.87520002E-03-3.81425074E-03-3.86272214E-03 5.03127524E-04 5.66620941E-04
 7 26 4.90133550E-04-2.82641941E-04 2.54115287E-04 2.77309421E-04-2.03201178E-03
 7 27-3.68201552E-03 1.68518267E-03-1.95378909E-03 1.07213081E-03-1.05459332E-03
 7 28 9.01418764E-04-1.26161866E-03-1.99008800E-03 4.29311185E-04-1.89670796E-01
 7 29-6.00015682E-01-1.07480439E-02-5.86942440E-03 3.77576378E-03 4.43332088E-02
 7 30 8.25332916E-03-4.10257892E-03 1.75050230E-02-2.84396791E-03 2.39832468E-03
 7 31-1.11409677E-03 2.51653969E-03-4.71192127E-03-6.83738313E-03-4.51603854E-03
 7 32 3.41941722E-03-3.35770465E-03 3.41641609E-03-4.41452564E-04-5.10813679E-04
 7 33-4.34525324E-04-2.48958390E-04 2.20409101E-04-2.46946732E-04 1.62821883E-03
 7 34-3.45625272E-03 1.45502986E-03-1.83539050E-03 9.51993073E-04 8.38678054E-04
 7 35 7.62209897E-04 1.04597937E-03-1.85292802E-03-3.81900550E-04 2.60481087E-01
 7 36 8.23969501E-01 1.54188253E-02 8.03991823E-03 4.17289904E-03 4.39361744E-02
 7 37 5.00953194E-03-5.88110940E-03 1.92834283E-02 8.43993290E-03 3.27182117E-03
 7 38-1.98755648E-03-3.02676108E-03 6.49563322E-03 8.62112595E-03 6.90133635E-03
 7 39-4.69535656E-03-4.64800346E-03 4.70673536E-03 6.04633453E-04 6.73991020E-04
 7 40 6.17905905E-04 3.35300547E-04 3.13849949E-04-3.40391375E-04 2.27219453E-03
 7 41-4.10016337E-03-2.62124560E-03-2.23064456E-03-1.57782705E-03 1.23395305E-03
 7 42-1.38804187E-03 1.38749193E-03-2.19441666E-03 5.23157707E-04
 8  1-1.46532114E+00 1.44800952E+00-1.37363135E+01 2.84386460E+01-6.10587301E-04
 8  2-9.92409798E-04-1.98475667E-03-2.97468000E-05-3.87149733E-05-7.74276074E-05
 8  3 1.79937608E-04 3.21288520E-04 6.42554379E-04 4.37126989E-04 8.31852998E-04
 8  4 1.66358644E-03 3.40966024E-02 3.40953378E-02 3.40940662E-02-6.23427322E-06
 8  5-3.11668633E-06-6.63250436E-07 8.19291873E-01 8.19295363E-01 8.19298841E-01
 8  6 2.04781430E-04 1.02397396E-04 2.75936606E-05-4.09986298E+00-4.09986097E+00
 8  7-4.09986081E+00 8.37771510E-04 4.18924740E-04 1.53363216E-04 5.04159273E-05
 8  8 1.23660769E-04 2.47311253E-04 8.12389124E-05 1.66868496E-04 3.29365491E-05
 8  9 1.66868429E-04 3.32500281E-05 8.56381628E-05 6.62343549E-02 1.45107342E-04
 8 10 3.12736429E-04 6.25453382E-04 2.82833586E-04 6.07443102E-04 1.33049442E-04
 8 11 6.07449992E-04 1.35594031E-04 3.24651575E-04 1.39358580E-01-1.05294928E-01
 8 12-1.05297774E-01-1.05300873E-01 1.11247561E-04 4.79258679E-05 1.11249148E-04
 8 13 2.56609397E-05 6.33338280E-05 2.66477608E-05-2.00112123E-02-2.00123354E-02
 8 14-2.00130551E-02 2.70708568E-05 5.34127269E-05 1.06817432E-04 4.52200471E-02
 8 15-3.48545867E+00 8.24851144E-01-4.41906167E-02 1.35516419E-01 1.35529426E-01
 8 16 1.35560605E-01-9.61230505E-02-9.61373421E-02-9.61691827E-02 2.76983019E-02
 8 17 2.77022641E-02 2.77109964E-02-8.64034142E-02-8.64030076E-02-8.64026371E-02
 8 18-1.42176507E-02-1.42188991E-02-1.42191091E-02-1.09732813E-02-1.09735143E-02
 8 19-1.09738891E-02 2.91791795E-04 2.91756495E-04 2.91649720E-04 4.58280924E-02