 $CONTRL  
     CITYP=GUGA 
     SCFTYP=NONE
     MULT=1 
     ICHARG=0 
     RUNTYP=energy 
     MAXIT=100 
     PP=READ
     UNITS=ANGS 
     QMTTOL=1.0E-06
 $END

 $SYSTEM 
    MWORDS=1500  
    MEMDDI=1500 
 $END

 $GUESS 
     GUESS=MOREAD
     NORB=40
     PUNMO=.T.
     PRTMO=.T.
!     GUESS=HUCKEL
 $END

! $SCF DAMP=.T. SOSCF=.F. SHIFT=.T. RSTRCT=.T. DIIS=.T.  $end


! $MCSCF
!      CISTEP=GUGA
! $END

 $CIDRT 
      NPRT=2
      NFZC=0
      NDOC=4
 !     NAOS=1
 !     NBOS=1
      NVAL=30 
      IEXCIT=2
      GROUP=C1
 $END

 $GUGDIA NSTATE=2 $END

 $GUGDM NFLGDM(1)=0,1 IROOT=2 $END

! $CIS    
!      HAMTYP=SAPS MULT=1 NACORE=0 NSTATE=1 IROOT=1
! $END

 $GUGDIA PRTTOL=0.0000001 $END

 $DATA
Silane CIS calculation
C1
Si 14 0.0000  0.0000  0.0000
S  10
  1  9.998274  0.002894
  2  5.517644 -0.014523
  3  3.044965  0.077634
  4  1.680393 -0.224022
  5  0.927341 -0.149080
  6  0.511762  0.085944
  7  0.282421  0.355394
  8  0.155857  0.445219
  9  0.086011  0.267230
 10  0.047466  0.060787
S   1                     
  1  0.700625  1.000000
S   1                     
  1  0.318864  1.000000
S   1                     
  1  0.145120  1.000000
S   1                     
  1  0.066046  1.000000
P  10                     
  1  5.027868 -0.003242 
  2  2.867751  0.010649
  3  1.635683 -0.049761
  4  0.932947 -0.000017
  5  0.532126  0.106060
  6  0.303509  0.236202
  7  0.173113  0.310665
  8  0.098739  0.294696
  9  0.056318  0.153898
 10  0.032122  0.042337
P   1                     
  1  1.336968  1.000000
P   1                     
  1  0.652035  1.000000
P   1                     
  1  0.317995  1.000000
P   1                     
  1  0.155085  1.000000
D   1                     
  1  2.145983  1.000000
D   1                     
  1  0.828929  1.000000
D   1                     
  1  0.320190  1.000000
D   1                     
  1  0.123680  1.000000
F   1                     
  1  0.756775  1.000000
F   1                     
  1  0.357607  1.000000
F   1                     
  1  0.168984  1.000000
G   1                     
  1  0.702896  1.000000
G   1                     
  1  0.316879  1.000000

H 1  0.8544  0.8544  0.8544
S  8
  1      23.843185  0.00411490
  2      10.212443  0.01046440
  3       4.374164  0.02801110
  4       1.873529  0.07588620
  5       0.802465  0.18210620
  6       0.343709  0.34852140
  7       0.147217  0.37823130
  8       0.063055  0.11642410
S  1
  1       0.068025  1.00000000
S  1
  1       0.171860  1.00000000
S  1
  1       0.434193  1.00000000
S  1
  1       1.096959  1.00000000
P  1
  1       0.236875  1.00000000
P  1
  1       0.641066  1.00000000
P  1
  1       1.734949  1.00000000
P  1
  1       4.695379  1.00000000
D  1
  1       0.451746  1.00000000
D  1
  1       1.155025  1.00000000
D  1
  1       2.953168  1.00000000
F  1
  1       1.100898  1.00000000
F  1
  1       2.968936  1.00000000
G  1
  1       1.819850  1.00000000

H 1 -0.8544 -0.8544  0.8544
S  8
  1      23.843185  0.00411490
  2      10.212443  0.01046440
  3       4.374164  0.02801110
  4       1.873529  0.07588620
  5       0.802465  0.18210620
  6       0.343709  0.34852140
  7       0.147217  0.37823130
  8       0.063055  0.11642410
S  1
  1       0.068025  1.00000000
S  1
  1       0.171860  1.00000000
S  1
  1       0.434193  1.00000000
S  1
  1       1.096959  1.00000000
P  1
  1       0.236875  1.00000000
P  1
  1       0.641066  1.00000000
P  1
  1       1.734949  1.00000000
P  1
  1       4.695379  1.00000000
D  1
  1       0.451746  1.00000000
D  1
  1       1.155025  1.00000000
D  1
  1       2.953168  1.00000000
F  1
  1       1.100898  1.00000000
F  1
  1       2.968936  1.00000000
G  1
  1       1.819850  1.00000000

H 1 -0.8544  0.8544 -0.8544
S  8
  1      23.843185  0.00411490
  2      10.212443  0.01046440
  3       4.374164  0.02801110
  4       1.873529  0.07588620
  5       0.802465  0.18210620
  6       0.343709  0.34852140
  7       0.147217  0.37823130
  8       0.063055  0.11642410
S  1
  1       0.068025  1.00000000
S  1
  1       0.171860  1.00000000
S  1
  1       0.434193  1.00000000
S  1
  1       1.096959  1.00000000
P  1
  1       0.236875  1.00000000
P  1
  1       0.641066  1.00000000
P  1
  1       1.734949  1.00000000
P  1
  1       4.695379  1.00000000
D  1
  1       0.451746  1.00000000
D  1
  1       1.155025  1.00000000
D  1
  1       2.953168  1.00000000
F  1
  1       1.100898  1.00000000
F  1
  1       2.968936  1.00000000
G  1
  1       1.819850  1.00000000

H 1  0.8544 -0.8544 -0.8544
S  8
  1      23.843185  0.00411490
  2      10.212443  0.01046440
  3       4.374164  0.02801110
  4       1.873529  0.07588620
  5       0.802465  0.18210620
  6       0.343709  0.34852140
  7       0.147217  0.37823130
  8       0.063055  0.11642410
S  1
  1       0.068025  1.00000000
S  1
  1       0.171860  1.00000000
S  1
  1       0.434193  1.00000000
S  1
  1       1.096959  1.00000000
P  1
  1       0.236875  1.00000000
P  1
  1       0.641066  1.00000000
P  1
  1       1.734949  1.00000000
P  1
  1       4.695379  1.00000000
D  1
  1       0.451746  1.00000000
D  1
  1       1.155025  1.00000000
D  1
  1       2.953168  1.00000000
F  1
  1       1.100898  1.00000000
F  1
  1       2.968936  1.00000000
G  1
  1       1.819850  1.00000000

 $END

 $ECP
Si-ccECP GEN 10 2
3
   4.000000 1 5.168316
  20.673264 3 8.861690
 -14.818174 2 3.933474
2
  14.832760 2 9.447023
  26.349664 2 2.553812
2
   7.621400 2 3.660001
  10.331583 2 1.903653
H-ccECP GEN 0 1
3
1.00000000000000    1 21.24359508259891 
21.24359508259891   3 21.24359508259891 
-10.85192405303825  2 21.77696655044365 
1
0.00000000000000    2 1.000000000000000 
H-ccECP
H-ccECP
H-ccECP

 $END

 $VEC   
 1  1 4.17417493E-01-1.24867199E-01-5.21684623E-03 2.99581771E-01 1.84762230E-02
 1  2-2.87671443E-10 1.31357926E-10 6.46052754E-11-1.34244968E-11-0.00000000E+00
 1  3-0.00000000E+00 2.32706707E-10-1.47778584E-10-3.11316528E-10-9.09566354E-11
 1  4-3.18150568E-11 9.85398570E-11-8.72712233E-10 7.86676555E-10 9.77632718E-10
 1  5-3.33937800E-03-3.33937800E-03-3.33937800E-03-0.00000000E+00-0.00000000E+00
 1  6-0.00000000E+00 2.75397448E-02 2.75397448E-02 2.75397448E-02 1.04396639E-11
 1  7 1.90318343E-11-0.00000000E+00 1.91453845E-02 1.91453845E-02 1.91453845E-02
 1  8-1.82365904E-10-1.54136513E-10-4.07242685E-11-2.47923122E-02-2.47923122E-02
 1  9-2.47923122E-02-2.39961829E-10 1.75983229E-11-7.11735657E-11 4.10865913E-11
 1 10-2.31535855E-11-5.86425814E-11-1.37944137E-11-2.60818810E-11 2.05055541E-11
 1 11-2.34067957E-11 1.95157469E-11-0.00000000E+00 9.08685241E-03 3.43526185E-10
 1 12-2.46532103E-10-5.48175505E-10-1.07066273E-10-2.55595562E-10 1.45263208E-10
 1 13-2.65601920E-10 1.56994547E-10-1.41215261E-10 1.50530326E-02 3.13250411E-10
 1 14-2.79422559E-10-4.77397600E-10-8.30381147E-11-2.77486312E-10 1.18346352E-10
 1 15-3.00305442E-10 1.16446018E-10-1.18477996E-10 6.60883908E-03-1.21673688E-02
 1 16-1.21673688E-02-1.21673688E-02 1.87437543E-11 2.54505291E-11 2.20946616E-11
 1 17-0.00000000E+00 2.88110418E-11-0.00000000E+00-3.56497077E-03-3.56497077E-03
 1 18-3.56497077E-03-0.00000000E+00-0.00000000E+00 1.10012874E-11-2.74825833E-02
 1 19-2.74825833E-02-2.74825833E-02-0.00000000E+00 6.63027329E-11-0.00000000E+00
 1 20-0.00000000E+00 3.84092113E-11-0.00000000E+00-1.33464952E-02-1.33464952E-02
 1 21-1.33464952E-02-0.00000000E+00 3.05705876E-11-0.00000000E+00 3.40479682E-01
 1 22-4.67755884E-02-7.24286142E-02-3.23862558E-02-8.12917969E-03-2.37898018E-03
 1 23-2.37898014E-03-2.37898015E-03-4.80596290E-03-4.80596289E-03-4.80596287E-03
 1 24-2.98808564E-03-2.98808564E-03-2.98808565E-03 2.74006790E-04 2.74006789E-04
 1 25 2.74006790E-04-1.34495160E-04-1.34495183E-04-1.34495190E-04-1.63270651E-04
 1 26-1.63270650E-04-1.63270658E-04-1.94889949E-04-1.94889893E-04-1.94889869E-04
 1 27-1.01286854E-03-1.01286854E-03-1.01286853E-03 5.65432730E-04 5.65432720E-04
 1 28 5.65432715E-04 3.91747120E-04 3.91747121E-04 3.91747119E-04 6.68477038E-04
 1 29 6.68477036E-04 6.68477028E-04 4.62175079E-04 4.62175075E-04 4.62175080E-04
 1 30 4.62175076E-04 4.62175080E-04 4.62175079E-04 2.83100623E-04 8.04135568E-04
 1 31 8.04135566E-04 8.04135566E-04 3.14592073E-04 3.14592073E-04 3.14592074E-04
 1 32 3.14592073E-04 3.14592073E-04 3.14592073E-04-7.72825042E-05 5.94060664E-04
 1 33 5.94060634E-04 5.94060621E-04 4.66855960E-04 4.66855962E-04 4.66855960E-04
 1 34 4.66855959E-04 4.66855962E-04 4.66855959E-04 2.86759283E-04 2.86759279E-04
 1 35 2.86759271E-04 1.22730526E-04 1.22730527E-04 1.22730527E-04 3.40479682E-01
 1 36-4.67755885E-02-7.24286143E-02-3.23862557E-02-8.12917978E-03 2.37898011E-03
 1 37 2.37898012E-03-2.37898014E-03 4.80596287E-03 4.80596289E-03-4.80596292E-03
 1 38 2.98808565E-03 2.98808565E-03-2.98808566E-03-2.74006789E-04-2.74006792E-04
 1 39 2.74006796E-04-1.34495206E-04-1.34495207E-04-1.34495180E-04-1.63270671E-04
 1 40 1.63270660E-04 1.63270660E-04-1.94889948E-04-1.94889931E-04-1.94890004E-04
 1 41-1.01286852E-03 1.01286854E-03 1.01286853E-03 5.65432732E-04 5.65432729E-04
 1 42 5.65432743E-04 3.91747116E-04-3.91747120E-04-3.91747119E-04-6.68477031E-04
 1 43-6.68477041E-04 6.68477055E-04-4.62175081E-04 4.62175087E-04-4.62175076E-04
 1 44 4.62175087E-04-4.62175076E-04-4.62175080E-04 2.83100623E-04-8.04135566E-04
 1 45-8.04135570E-04 8.04135576E-04-3.14592075E-04 3.14592077E-04-3.14592073E-04
 1 46 3.14592078E-04-3.14592073E-04-3.14592075E-04-7.72825042E-05 5.94060657E-04
 1 47 5.94060648E-04 5.94060686E-04 4.66855954E-04-4.66855961E-04 4.66855954E-04
 1 48-4.66855958E-04-4.66855961E-04-4.66855958E-04 2.86759286E-04 2.86759297E-04
 1 49 2.86759294E-04-1.22730526E-04-1.22730527E-04 1.22730524E-04 3.40479682E-01
 1 50-4.67755884E-02-7.24286152E-02-3.23862557E-02-8.12917979E-03 2.37897994E-03
 1 51-2.37897994E-03 2.37897991E-03 4.80596292E-03-4.80596296E-03 4.80596293E-03
 1 52 2.98808564E-03-2.98808565E-03 2.98808566E-03-2.74006791E-04 2.74006796E-04
 1 53-2.74006800E-04-1.34495218E-04-1.34495203E-04-1.34495228E-04 1.63270690E-04
 1 54-1.63270702E-04 1.63270699E-04-1.94889943E-04-1.94889983E-04-1.94889937E-04
 1 55 1.01286848E-03-1.01286847E-03 1.01286846E-03 5.65432730E-04 5.65432737E-04
 1 56 5.65432729E-04-3.91747108E-04 3.91747106E-04-3.91747106E-04-6.68477047E-04
 1 57 6.68477069E-04-6.68477061E-04 4.62175092E-04-4.62175088E-04-4.62175082E-04
 1 58-4.62175088E-04-4.62175083E-04 4.62175093E-04 2.83100622E-04-8.04135569E-04
 1 59 8.04135577E-04-8.04135581E-04 3.14592078E-04-3.14592080E-04-3.14592074E-04
 1 60-3.14592080E-04-3.14592074E-04 3.14592078E-04-7.72825041E-05 5.94060653E-04
 1 61 5.94060673E-04 5.94060649E-04-4.66855941E-04 4.66855937E-04-4.66855941E-04
 1 62-4.66855937E-04 4.66855937E-04-4.66855937E-04 2.86759292E-04 2.86759285E-04
 1 63 2.86759291E-04-1.22730517E-04 1.22730517E-04-1.22730518E-04 3.40479682E-01
 1 64-4.67755883E-02-7.24286150E-02-3.23862559E-02-8.12917961E-03-2.37897999E-03
 1 65 2.37898002E-03 2.37897999E-03-4.80596284E-03 4.80596280E-03 4.80596292E-03
 1 66-2.98808567E-03 2.98808567E-03 2.98808567E-03 2.74006793E-04-2.74006792E-04
 1 67-2.74006801E-04-1.34495156E-04-1.34495142E-04-1.34495136E-04 1.63270706E-04
 1 68 1.63270705E-04-1.63270700E-04-1.94889855E-04-1.94889901E-04-1.94889893E-04
 1 69 1.01286848E-03 1.01286846E-03-1.01286848E-03 5.65432712E-04 5.65432721E-04
 1 70 5.65432719E-04-3.91747110E-04-3.91747106E-04 3.91747110E-04 6.68477025E-04
 1 71-6.68477010E-04-6.68477058E-04-4.62175067E-04-4.62175088E-04 4.62175073E-04
 1 72-4.62175088E-04 4.62175071E-04-4.62175065E-04 2.83100622E-04 8.04135571E-04
 1 73-8.04135569E-04-8.04135584E-04-3.14592074E-04-3.14592081E-04 3.14592075E-04
 1 74-3.14592081E-04 3.14592075E-04-3.14592074E-04-7.72825042E-05 5.94060619E-04
 1 75 5.94060643E-04 5.94060639E-04-4.66855944E-04-4.66855937E-04-4.66855944E-04
 1 76 4.66855944E-04-4.66855937E-04 4.66855944E-04 2.86759273E-04 2.86759272E-04
 1 77 2.86759279E-04 1.22730519E-04-1.22730517E-04-1.22730520E-04
 2  1 2.79082093E-10 1.89391803E-11 4.00681549E-11 3.16299000E-10-1.94678261E-10
 2  2 6.78908563E-02 1.26949574E-02 9.10888190E-02-1.94470548E-02-3.63641801E-03
 2  3-2.60920152E-02 3.59008693E-02 6.71312800E-03 4.81680150E-02 8.99998198E-02
 2  4 1.68291275E-02 1.20752304E-01 2.25038033E-02 4.20800143E-03 3.01932393E-02
 2  5-0.00000000E+00-0.00000000E+00-0.00000000E+00 8.99269030E-03 1.25330223E-03
 2  6 6.70248502E-03-3.71837399E-11-3.73340718E-11-3.72488577E-11 2.08153704E-02
 2  7 2.90101731E-03 1.55142347E-02-0.00000000E+00 1.11189346E-11-0.00000000E+00
 2  8 2.47708588E-02 3.45228978E-03 1.84623627E-02 4.85270816E-11 4.32781701E-11
 2  9 4.38465471E-11 2.51564703E-02 3.50603206E-03 1.87497689E-02-8.88335529E-04
 2 10-1.66110454E-04-1.19187531E-03 5.04297895E-04 3.61843664E-03 2.69691457E-03
 2 11 3.61843665E-03 2.69691457E-03 5.04297895E-04-0.00000000E+00 1.08456711E-02
 2 12 2.02803946E-03 1.45515820E-02 1.62410643E-03 1.16532832E-02 8.68549386E-03
 2 13 1.16532832E-02 8.68549386E-03 1.62410643E-03 6.40684561E-11 2.02106867E-02
 2 14 3.77921010E-03 2.71165763E-02 2.32217179E-03 1.66620397E-02 1.24186498E-02
 2 15 1.66620397E-02 1.24186498E-02 2.32217179E-03 4.52599223E-11-0.00000000E+00
 2 16-0.00000000E+00-0.00000000E+00 6.76439077E-03 9.42746363E-04 6.76439077E-03
 2 17 5.04167566E-03 9.42746363E-04 5.04167566E-03-0.00000000E+00-0.00000000E+00
 2 18-0.00000000E+00 3.50351885E-03 6.55125374E-04 4.70065355E-03-0.00000000E+00
 2 19-0.00000000E+00-0.00000000E+00 7.32657369E-03 1.02109723E-03 7.32657369E-03
 2 20 5.46068515E-03 1.02109723E-03 5.46068516E-03 1.85461078E-11 1.79888101E-11
 2 21 1.93227807E-11 1.85187518E-03 3.46283402E-04 2.48465156E-03 6.53141433E-01
 2 22-3.36143990E-02-8.08296110E-02-3.94879909E-02-1.25991910E-02-8.36442431E-03
 2 23-1.06396888E-02-7.40816664E-03-7.72537868E-03-1.02014075E-02-6.68474298E-03
 2 24-1.65181684E-03-1.70832619E-03-1.62806686E-03-2.91935064E-04-3.82596659E-04
 2 25-2.53831429E-04 2.99206135E-04 9.45306372E-04 2.76604312E-05 9.58730498E-04
 2 26 4.23795964E-04 8.00435050E-04 1.56349726E-03 1.70479545E-03 1.50411187E-03
 2 27 2.50690822E-03 1.94075245E-03 2.33937393E-03 3.06329435E-04 3.29003847E-04
 2 28 2.96799739E-04-2.46821750E-04-1.96772904E-04-2.32011519E-04 2.59036281E-05
 2 29 3.17687348E-04-9.67284451E-05-2.72905603E-05-1.51812265E-04-2.27754589E-04
 2 30-2.64602496E-04-6.75604092E-05 2.01133887E-05-3.65082256E-04 1.01248694E-04
 2 31 1.05803468E-04 9.93343967E-05 4.92480239E-05 4.18206824E-05 4.73262060E-05
 2 32 4.51283409E-05 4.26283910E-05 4.78578674E-05 1.73920788E-05-1.23394593E-04
 2 33-1.25839539E-04-1.22367022E-04-5.39232478E-04-4.19827395E-04-5.28418935E-04
 2 34-4.93085114E-04-4.24372156E-04-5.08443419E-04-8.95325363E-06-4.95771251E-05
 2 35-2.09744890E-05-1.50722509E-04-9.26857048E-05-1.75114459E-04 3.99590076E-02
 2 36-2.05651938E-03-4.94513275E-03-2.41586412E-03-7.70814931E-04 3.48152012E-03
 2 37 1.20625562E-03 3.07188002E-03 3.70447091E-03 1.22844213E-03 3.42718670E-03
 2 38 1.74816468E-04 1.18307118E-04-1.20536942E-05 1.36196473E-04 4.55348782E-05
 2 39 1.24934360E-04 8.61627125E-04 2.15526887E-04-9.99322841E-04 6.42188789E-04
 2 40 6.59983723E-05 4.42637461E-04 2.80083656E-04 1.38785468E-04-1.26894768E-04
 2 41 7.70963582E-04-2.14433662E-05 3.77178107E-04 4.83369054E-05 2.56624934E-05
 2 42-1.69717637E-05-6.96963228E-05 3.43784150E-06-3.18007720E-05-3.82435219E-04
 2 43-9.06515047E-05-4.57983750E-04 1.27490489E-04-2.92341825E-04-7.29735379E-05
 2 44-1.79551594E-04-2.85050819E-04-1.97377024E-04-2.23356284E-05-1.21394821E-05
 2 45-7.58470749E-06-9.79543563E-07-8.60665391E-06-1.22622772E-06-1.05284718E-05
 2 46-4.53388620E-06-4.30914580E-06 9.20330638E-07 1.06404238E-06-1.07405062E-05
 2 47-8.29556236E-06-3.69838343E-06-1.49128888E-04-8.94867349E-06-1.59942432E-04
 2 48-8.22063915E-05 2.21973663E-05-6.18738953E-05 4.37668388E-05-1.00141433E-05
 2 49-3.86167798E-05-6.65313285E-05-8.49452485E-06-1.00630950E-04-5.56544719E-01
 2 50 2.86429789E-02 6.88752707E-02 3.36478923E-02 1.07358268E-02-6.71346697E-03
 2 51 1.00353449E-02-5.75720931E-03-6.13241209E-03 9.74740519E-03-5.09177636E-03
 2 52-1.39724077E-03 1.47974421E-03-1.37349078E-03-2.32266802E-04 3.64632405E-04
 2 53-1.94163170E-04-1.37421938E-04-1.08072596E-03 1.34123767E-04 9.08864622E-04
 2 54-2.00677463E-04 7.50569175E-04-1.30655916E-03-1.51285401E-03-1.24717377E-03
 2 55 2.23343896E-03-1.48391875E-03 2.06590467E-03-2.56899958E-04-2.90004517E-04
 2 56-2.47370262E-04-2.18918580E-04 1.52660099E-04-2.04108348E-04-3.10061256E-05
 2 57-3.94997045E-04-1.53638212E-04-3.46107555E-05-1.30240581E-04-2.58066001E-04
 2 58-2.94913913E-04-4.59887196E-05-8.20147047E-05 3.11088215E-04 8.54458967E-05
 2 59-9.20958496E-05 8.35315938E-05-4.35904149E-05 3.37575312E-05 4.07845683E-05
 2 60 3.85867007E-05 3.45652423E-05-4.22002584E-05-1.48198680E-05 1.04700291E-04
 2 61 1.08269904E-04 1.03672720E-04-4.81968725E-04 3.23891163E-04-4.66180990E-04
 2 62-4.30847168E-04 3.28435924E-04-4.51179664E-04 6.48062765E-07 5.44290435E-05
 2 63 1.26692981E-05-1.38988869E-04 5.42553444E-05-1.63380819E-04-1.36555721E-01
 2 64 7.02793956E-03 1.68994725E-02 8.25596225E-03 2.63417926E-03 5.13247759E-03
 2 65-1.81059961E-03 1.42092255E-03 5.29743766E-03-1.68244452E-03 1.83421998E-03
 2 66 4.29392505E-04-3.46889062E-04-2.66629728E-04 1.95864738E-04-6.34991354E-05
 2 67 6.52660931E-05-1.02341130E-03-8.01072782E-05 8.37538665E-04 6.92054694E-04
 2 68 1.57120158E-04 3.92771555E-04-5.37021676E-04-3.30726829E-04-1.30043248E-04
 2 69 1.04443285E-03 4.78277081E-04 1.03708840E-04-9.77663980E-05-6.46618381E-05
 2 70-3.24577295E-05-9.75994949E-05-4.75506493E-05-3.89760062E-06-4.39345013E-04
 2 71 1.33418294E-05-4.01073967E-04-1.89391796E-04-3.13913502E-04-1.03284966E-04
 2 72-1.49240170E-04-2.63479147E-04 1.35475716E-04 7.63296719E-05-2.79422775E-05
 2 73 2.12923226E-05 1.48232480E-05 1.42642615E-05 6.83691867E-06-1.70701089E-05
 2 74 2.00774912E-06-1.23722939E-05 4.73727691E-06-3.63625370E-06 2.94347796E-05
 2 75 2.58651701E-05 2.23926549E-05-2.06392645E-04-8.69875622E-05-2.22180380E-04
 2 76-1.99684442E-05-1.18133602E-04-4.61013925E-06-3.54616640E-05 5.16220784E-06
 2 77 4.69219540E-05-5.47976877E-05-2.99358375E-05-1.12364591E-04
 3  1-1.08298039E-10-3.34092043E-11-4.60259088E-11-1.55049650E-10 1.79193461E-10
 3  2 9.10397904E-02-2.53318766E-02-6.43238358E-02-2.60779712E-02 7.25621120E-03
 3  3 1.84252965E-02 4.81420885E-02-1.33955651E-02-3.40146191E-02 1.20687309E-01
 3  4-3.35813164E-02-8.52711830E-02 3.01769877E-02-8.39676509E-03-2.13214419E-02
 3  5-0.00000000E+00-0.00000000E+00-0.00000000E+00-6.35033301E-03-2.50087467E-03
 3  6 8.98784998E-03 1.09887270E-11-0.00000000E+00 1.09285828E-11-1.46991089E-02
 3  7-5.78877187E-03 2.08041665E-02-2.96977620E-11-1.86488994E-11-3.34835219E-11
 3  8-1.74923407E-02-6.88879650E-03 2.47575259E-02-7.12952221E-11-4.21509845E-11
 3  9-6.07956515E-11-1.77646464E-02-6.99603537E-03 2.51429298E-02-1.19123378E-03
 3 10 3.31461520E-04 8.41661932E-04-1.00629025E-03-2.55521728E-03 3.61648902E-03
 3 11-2.55521728E-03 3.61648903E-03-1.00629025E-03-0.00000000E+00 1.45437497E-02
 3 12-4.04680709E-03-1.02758339E-02-3.24078778E-03-8.22915353E-03 1.16470109E-02
 3 13-8.22915352E-03 1.16470108E-02-3.24078779E-03-3.52545427E-11 2.71019808E-02
 3 14-7.54114248E-03-1.91488069E-02-4.63372713E-03-1.17661675E-02 1.66530714E-02
 3 15-1.17661675E-02 1.66530713E-02-4.63372714E-03-3.11028224E-11-0.00000000E+00
 3 16-0.00000000E+00-0.00000000E+00-4.77678342E-03-1.88118272E-03-4.77678342E-03
 3 17 6.76074984E-03-1.88118272E-03 6.76074984E-03-0.00000000E+00-0.00000000E+00
 3 18-0.00000000E+00 4.69812342E-03-1.30725567E-03-3.31944216E-03-0.00000000E+00
 3 19-1.39065649E-11-0.00000000E+00-5.17377794E-03-2.03752625E-03-5.17377792E-03
 3 20 7.32263016E-03-2.03752626E-03 7.32263014E-03-1.70274494E-11-0.00000000E+00
 3 21-2.08385359E-11 2.48331420E-03-6.90983676E-04-1.75457669E-03 5.26576791E-03
 3 22-2.71006599E-04-6.51665752E-04-3.18360673E-04-1.01577443E-04 3.66280935E-03
 3 23-1.13421958E-03-2.74153137E-03 3.99711000E-03-1.22319805E-03-2.97233551E-03
 3 24 7.93285195E-05-3.98123545E-05-7.97321737E-05 1.46284009E-04-4.48613689E-05
 3 25-1.08907307E-04-1.05685460E-03 3.05343740E-04 7.61767384E-04-4.36206854E-04
 3 26-1.70138254E-04 6.23944635E-04-2.19049976E-04 7.88544953E-05 1.78671600E-04
 3 27-4.49635284E-04-1.68037683E-04 6.72391513E-04-3.47044926E-05 1.31008572E-05
 3 28 2.91187039E-05 3.95450627E-05 1.46514981E-05-5.96434445E-05-4.78164014E-04
 3 29 1.37014967E-04 3.43139323E-04 2.25097050E-04 2.87032326E-04-1.97549075E-04
 3 30 4.92322804E-05-2.77227315E-04-9.23812355E-05-2.94337276E-06-6.65116348E-06
 3 31 2.95184558E-06 6.16947014E-06-2.61604575E-06 1.07820651E-06-6.66788959E-06
 3 32 8.05187204E-06-4.33126533E-06 6.69424405E-06 1.40218786E-07 3.01360304E-06
 3 33-2.14116119E-06-3.86835470E-06 7.70170092E-05 1.76266662E-05 9.98156252E-05
 3 34-1.36825437E-04 4.80642782E-05-1.29186440E-04-3.37854873E-05-1.35797724E-05
 3 35 4.67242836E-05-9.63651967E-05 2.59960595E-05 6.69949164E-05-4.94709800E-01
 3 36 2.54605998E-02 6.12228816E-02 2.99094424E-02 9.54302231E-03-4.70239503E-03
 3 37-9.49942391E-03 5.80367000E-03-4.07426224E-03-9.29457038E-03 5.27271129E-03
 3 38-1.21057801E-03-1.32971886E-03 1.23792970E-03-1.56047965E-04-3.47193345E-04
 3 39 1.99930051E-04 2.37113505E-04-1.12508483E-03-7.56123382E-05-6.94308072E-04
 3 40 8.25262811E-05 8.76609161E-04-1.08282436E-03-1.38072884E-03-1.15121562E-03
 3 41-1.86508665E-03 1.21759847E-03 2.05802768E-03-2.15748852E-04-2.63554199E-04
 3 42-2.26723731E-04 1.83969269E-04-1.26730541E-04-2.01025487E-04-1.89808975E-04
 3 43 4.25370038E-04 4.85796336E-05 1.15795928E-04 2.66142390E-05-3.06850211E-04
 3 44 2.64414284E-04-1.23642966E-04 6.12031282E-05 2.76524748E-04 7.34197254E-05
 3 45 8.30227319E-05-7.56243278E-05 3.82389665E-05-2.97446319E-05 3.41871239E-05
 3 46-3.67182974E-05 2.88144333E-05 3.98399414E-05-1.31733059E-05 9.17080560E-05
 3 47 9.68628268E-05 9.28914704E-05 4.09080450E-04-2.72521953E-04 3.86281834E-04
 3 48-4.26974062E-04-2.67287975E-04-4.44538700E-04 9.20131501E-06 5.56611058E-05
 3 49-4.64294847E-06-1.55818155E-04-3.34568958E-05 1.27727143E-04-1.98017578E-01
 3 50 1.01911187E-02 2.45056937E-02 1.19718578E-02 3.81978722E-03 3.68442351E-04
 3 51 2.34014446E-03-6.03589836E-03 8.18459379E-04 2.12912720E-03-6.15098619E-03
 3 52-4.28659756E-04 4.95931239E-04-5.87720423E-04 2.72202742E-05 8.07077509E-05
 3 53-2.27971046E-04 7.34025917E-04-3.51236172E-05-1.08459608E-03-3.36703055E-04
 3 54-2.75078729E-04 7.23448435E-04-2.93651436E-04-4.61859716E-04-6.91372993E-04
 3 55 9.60530113E-05-7.43541194E-04 1.21807982E-03-6.39285078E-05-9.09212503E-05
 3 56-1.27751708E-04-1.61337132E-05 7.33724410E-05-1.15322222E-04-3.64604666E-04
 3 57 1.72509422E-05 4.56698689E-04-1.01577435E-04 2.43987584E-04-1.37064823E-04
 3 58 1.09716541E-04-3.20272066E-04 2.15900851E-04 1.10684609E-04 2.48821866E-05
 3 59-3.03044124E-05 3.77028148E-05-8.67330582E-06 1.71676398E-05 6.38548035E-06
 3 60 2.11052394E-05 1.17581706E-05-1.79835958E-05-5.27288141E-06 3.42894907E-05
 3 61 3.72000535E-05 4.11714387E-05-3.72487066E-05 1.73807202E-04-2.43757321E-05
 3 62-2.61016797E-04 1.43369590E-04-2.43452160E-04 5.03578711E-05 3.89808859E-06
 3 63-3.01519026E-05-1.19778836E-04 5.06889678E-05 4.35812787E-05 6.87461611E-01
 3 64-3.53807120E-02-8.50769091E-02-4.15629393E-02-1.32612321E-02-7.99676210E-03
 3 65 1.07053489E-02 9.09803709E-03-7.25291302E-03 1.02004995E-02 8.45136205E-03
 3 66-1.71856623E-03 1.78583775E-03 1.74591793E-03-2.75111706E-04 3.83039729E-04
 3 67 3.18993788E-04 8.57151993E-05 8.54864710E-04 3.98441046E-04-7.93811893E-04
 3 68-5.27743281E-04 9.76112986E-04 1.59552575E-03 1.76373407E-03 1.66391701E-03
 3 69-2.41077495E-03-2.12917736E-03 2.60371597E-03 3.14381857E-04 3.41374591E-04
 3 70 3.25356737E-04 2.39648045E-04 2.14754483E-04-2.56704261E-04-7.62495772E-05
 3 71-2.71104099E-04-6.49797573E-05 7.72370220E-06 6.96589716E-05-2.46365936E-04
 3 72 2.03930013E-04-1.66687696E-04 6.23165025E-05-3.84265986E-04 1.04953067E-04
 3 73-1.10375296E-04-1.07157675E-04-4.95283172E-05-4.58340663E-05 4.72404900E-05
 3 74-4.97716657E-05 4.49038655E-05-5.11292921E-05 1.83059688E-05-1.29011140E-04
 3 75-1.31921724E-04-1.30194551E-04 5.23346165E-04 4.63955826E-04 5.10473190E-04
 3 76-5.51165416E-04 4.58721848E-04-5.58804412E-04-2.57736974E-05-4.59794182E-05
 3 77-1.19294332E-05-1.79231791E-04 1.10141926E-04 1.51140780E-04
 4  1 4.03071774E-11-9.63629616E-11-1.12825109E-10-2.91643024E-10 1.13880132E-09
 4  2-1.30419112E-02-1.10745823E-01 2.51550087E-02 3.73580151E-03 3.17226827E-02
 4  3-7.20554814E-03-6.89659819E-03-5.85626922E-02 1.33020369E-02-1.72890685E-02
 4  4-1.46810700E-01 3.33468508E-02-4.32300618E-03-3.67089524E-02 8.33813861E-03
 4  5 0.00000000E+00 0.00000000E+00 0.00000000E+00 2.48341350E-03-1.09333165E-02
 4  6-1.28755505E-03-1.29929168E-11-1.45941591E-11-1.64783639E-11 5.74835451E-03
 4  7-2.53073358E-02-2.98030227E-03-1.11679109E-10-1.02467734E-10-8.89632484E-11
 4  8 6.84069872E-03-3.01164202E-02-3.54664105E-03-3.11927237E-10-3.01807710E-10
 4  9-2.91974989E-10 6.94718885E-03-3.05852468E-02-3.60185209E-03 1.70650246E-04
 4 10 1.44908246E-03-3.29147254E-04-4.39929676E-03 9.99264300E-04-5.18080392E-04
 4 11 9.99264299E-04-5.18080391E-04-4.39929676E-03 0.00000000E+00-2.08346594E-03
 4 12-1.76918194E-02 4.01855215E-03-1.41680665E-02 3.21816049E-03-1.66849337E-03
 4 13 3.21816050E-03-1.66849337E-03-1.41680665E-02 1.89039280E-11-3.88249616E-03
 4 14-3.29683445E-02 7.48849001E-03-2.02577147E-02 4.60137432E-03-2.38563688E-03
 4 15 4.60137432E-03-2.38563689E-03-2.02577147E-02-4.08820662E-11 0.00000000E+00
 4 16 0.00000000E+00 0.00000000E+00 1.86804825E-03-8.22414905E-03 1.86804825E-03
 4 17-9.68511670E-04-8.22414905E-03-9.68511670E-04 0.00000000E+00 0.00000000E+00
 4 18 0.00000000E+00-6.73029985E-04-5.71505649E-03 1.29812838E-03 0.00000000E+00
 4 19 0.00000000E+00-1.46845002E-11 2.02330019E-03-8.90765125E-03 2.02330019E-03
 4 20-1.04900387E-03-8.90765126E-03-1.04900387E-03 0.00000000E+00 0.00000000E+00
 4 21 0.00000000E+00-3.55747338E-04-3.02084038E-03 6.86159202E-04-3.75251246E-01
 4 22 1.93125782E-02 4.64392714E-02 2.26871502E-02 7.23864976E-03 5.87589955E-03
 4 23 1.84838579E-03 7.45043855E-03 5.60318441E-03 1.22029180E-03 7.31665731E-03
 4 24 9.75604568E-04 8.75575684E-04 1.01471044E-03 2.10372647E-04 4.98898424E-05
 4 25 2.73112694E-04-4.75823137E-04 6.67858224E-04-9.22940401E-04-2.20653616E-05
 4 26-9.49408996E-04-2.82708878E-04-9.64745956E-04-7.14629807E-04-1.06252778E-03
 4 27-8.80683736E-04-1.86215140E-03-1.15653960E-03-1.86662161E-04-1.46525506E-04
 4 28-2.02353413E-04 9.23363610E-05 1.79099273E-04 1.16722349E-04-1.52134741E-04
 4 29 3.64360338E-04-3.54056279E-04 2.33059343E-04 1.71928995E-05-1.21788027E-04
 4 30-1.82460463E-04 1.55918951E-04 3.11112958E-04 2.09751771E-04-6.03132227E-05
 4 31-5.22506841E-05-6.34652502E-05-2.00490367E-05-3.29248191E-05-2.34509024E-05
 4 32-2.70698339E-05-3.15948688E-05-2.23380179E-05-9.99232180E-06 7.20443412E-05
 4 33 6.77164734E-05 7.37363008E-05 1.86694081E-04 3.93690519E-04 2.05835458E-04
 4 34 2.64014841E-04 3.86207281E-04 2.37390225E-04 4.52986723E-05-2.51254390E-05
 4 35 2.55049436E-05 5.92950884E-05 1.62027771E-04 1.91321920E-05 5.66657258E-01
 4 36-2.91634282E-02-7.01267492E-02-3.42592820E-02-1.09308991E-02 9.14726529E-03
 4 37 5.11975154E-03-8.64794378E-03 8.75964171E-03 4.37674905E-03-8.21626112E-03
 4 38 1.48004604E-03 1.38001715E-03-1.46764469E-03 3.28605072E-04 1.68122272E-04
 4 39-3.08708804E-04 7.96397772E-04-3.47283588E-04 6.54606891E-04 4.64173844E-04
 4 40-1.04821808E-03-3.81517959E-04 1.47386758E-03 1.22375142E-03 1.44285877E-03
 4 41 1.78589794E-03-2.40402967E-03-1.69841787E-03 2.84606524E-04 2.44469869E-04
 4 42 2.79630477E-04-1.79745713E-04 2.34389295E-04 1.72012370E-04-2.64901252E-04
 4 43 2.51593846E-04 2.00867406E-04 2.75803545E-04-1.39850122E-04-7.90438326E-05
 4 44 5.98032413E-05 9.58569838E-05 2.51050999E-04-3.16740755E-04-9.16264117E-05
 4 45-8.35638659E-05 9.06268269E-05-3.60261350E-05 4.41353422E-05-3.94280038E-05
 4 46 3.82803569E-05-4.45571020E-05-3.53002479E-05 1.50891480E-05-1.09086945E-04
 4 47-1.04759077E-04-1.08550386E-04-3.76791351E-04 5.07158424E-04-3.95932728E-04
 4 48 3.77482744E-04 5.09531526E-04 3.60714469E-04-3.56845664E-05 8.66878235E-06
 4 49-4.19616001E-05 8.25452487E-05 1.85277932E-04-9.52818016E-05-4.67420551E-01
 4 50 2.40561386E-02 5.78456969E-02 2.82595735E-02 9.01660886E-03-8.52640454E-03
 4 51 3.42367330E-03-6.95186552E-03-8.29323146E-03 2.74024657E-03-6.57975867E-03
 4 52-1.24521690E-03 1.11848350E-03-1.20611106E-03-3.10149859E-04 1.06823273E-04
 4 53-2.47409797E-04-9.35518444E-04 5.13489290E-04-4.88401188E-04 4.12945110E-04
 4 54-9.96989339E-04 1.52301595E-04-1.27668047E-03-9.59791289E-04-1.17889864E-03
 4 55 1.50495476E-03-2.12308649E-03 1.22909889E-03-2.44541320E-04-1.93689462E-04
 4 56-2.28850070E-04-1.51079949E-04 2.05723533E-04-1.26693962E-04 3.44323810E-04
 4 57 3.10058949E-04 1.42402323E-04 3.06943370E-04-1.70989938E-04 1.42636907E-04
 4 58 8.19644937E-05-3.22639091E-05 2.28889756E-04 2.61271053E-04 7.75441546E-05
 4 59-6.73291769E-05 7.43921504E-05-2.93057137E-05 3.74149264E-05 3.36157683E-05
 4 60 2.99968472E-05 3.87448665E-05-2.70167327E-05-1.24466384E-05 9.10371691E-05
 4 61 8.55538921E-05 8.93452040E-05-3.12852442E-04 4.43219517E-04-3.37103955E-04
 4 62-2.78924574E-04 4.50702755E-04-2.62156299E-04 2.71524149E-05-1.72009331E-05
 4 63 4.69461419E-05-4.30645860E-05 1.73223613E-04-8.32274819E-05 2.76014539E-01
 4 64-1.42052892E-02-3.41582182E-02-1.66874416E-02-5.32435970E-03-5.25503890E-03
 4 65 1.52307672E-04 5.75436044E-03-5.13677414E-03-4.16210810E-04 5.68015463E-03
 4 66-7.40775479E-04 6.14042071E-04 7.53176809E-04-1.91917419E-04-1.14091597E-05
 4 67 2.11813701E-04 6.14943723E-04-8.34064019E-04 7.56734599E-04 2.91633637E-05
 4 68-8.98180267E-04 5.34925215E-05 7.67558770E-04 4.50669600E-04 7.98567578E-04
 4 69-5.99740525E-04-1.58120819E-03 6.87220588E-04 1.46596973E-04 9.57451131E-05