 $CONTRL  
     SCFTYP=RHF 
     MULT=1 
     ICHARG=0 
     RUNTYP=energy 
     MAXIT=200 
     PP=READ
     UNITS=ANGS 
 !    ICUT=12
 $END

 $SYSTEM 
    MWORDS=1000  
    MEMDDI=1000 
 $END

 $GUESS 
    GUESS=HUCKEL
!    GUESS=MOREAD
!    NORB=94
!    PUNMO=.T.
 $END

 $SCF FDIFF=.F. DAMP=.T. SOSCF=.F. SHIFT=.T. RSTRCT=.T. DIIS=.T.  $end


! $MCSCF
!      CISTEP=GUGA
! $END

! $CIDRT 
!      NPRT=2
!      NFZC=0
!      NDOC=4
! !     NAOS=1
! !     NBOS=1
!      NVAL=30 
!      IEXCIT=1
!      GROUP=C1
! $END
!
! $GUGDIA NSTATE=2 $END
!
! $GUGDM NFLGDM(1)=1,1 IROOT=2 $END
!
! $GUGDIA PRTTOL=0.0001 $END

! $CIS    
!      HAMTYP=SAPS MULT=1 NACORE=0 NSTATE=1 IROOT=1
! $END

 $DATA
Silane CIS calculation
C1
Si 14 0.0000  0.0000  0.0000
S  10
  1  9.998274  0.002894
  2  5.517644 -0.014523
  3  3.044965  0.077634
  4  1.680393 -0.224022
  5  0.927341 -0.149080
  6  0.511762  0.085944
  7  0.282421  0.355394
  8  0.155857  0.445219
  9  0.086011  0.267230
 10  0.047466  0.060787
S   1                     
  1  0.700625  1.000000
S   1                     
  1  0.318864  1.000000
S   1                     
  1  0.145120  1.000000
S   1                     
  1  0.066046  1.000000
P  10                     
  1  5.027868 -0.003242 
  2  2.867751  0.010649
  3  1.635683 -0.049761
  4  0.932947 -0.000017
  5  0.532126  0.106060
  6  0.303509  0.236202
  7  0.173113  0.310665
  8  0.098739  0.294696
  9  0.056318  0.153898
 10  0.032122  0.042337
P   1                     
  1  1.336968  1.000000
P   1                     
  1  0.652035  1.000000
P   1                     
  1  0.317995  1.000000
P   1                     
  1  0.155085  1.000000
D   1                     
  1  2.145983  1.000000
D   1                     
  1  0.828929  1.000000
D   1                     
  1  0.320190  1.000000
D   1                     
  1  0.123680  1.000000
F   1                     
  1  0.756775  1.000000
F   1                     
  1  0.357607  1.000000
F   1                     
  1  0.168984  1.000000
G   1                     
  1  0.702896  1.000000
G   1                     
  1  0.316879  1.000000

H 1  0.8544  0.8544  0.8544
S  8
  1      23.843185  0.00411490
  2      10.212443  0.01046440
  3       4.374164  0.02801110
  4       1.873529  0.07588620
  5       0.802465  0.18210620
  6       0.343709  0.34852140
  7       0.147217  0.37823130
  8       0.063055  0.11642410
S  1
  1       0.068025  1.00000000
S  1
  1       0.171860  1.00000000
S  1
  1       0.434193  1.00000000
S  1
  1       1.096959  1.00000000
P  1
  1       0.236875  1.00000000
P  1
  1       0.641066  1.00000000
P  1
  1       1.734949  1.00000000
P  1
  1       4.695379  1.00000000
D  1
  1       0.451746  1.00000000
D  1
  1       1.155025  1.00000000
D  1
  1       2.953168  1.00000000
F  1
  1       1.100898  1.00000000
F  1
  1       2.968936  1.00000000
G  1
  1       1.819850  1.00000000

H 1 -0.8544 -0.8544  0.8544
S  8
  1      23.843185  0.00411490
  2      10.212443  0.01046440
  3       4.374164  0.02801110
  4       1.873529  0.07588620
  5       0.802465  0.18210620
  6       0.343709  0.34852140
  7       0.147217  0.37823130
  8       0.063055  0.11642410
S  1
  1       0.068025  1.00000000
S  1
  1       0.171860  1.00000000
S  1
  1       0.434193  1.00000000
S  1
  1       1.096959  1.00000000
P  1
  1       0.236875  1.00000000
P  1
  1       0.641066  1.00000000
P  1
  1       1.734949  1.00000000
P  1
  1       4.695379  1.00000000
D  1
  1       0.451746  1.00000000
D  1
  1       1.155025  1.00000000
D  1
  1       2.953168  1.00000000
F  1
  1       1.100898  1.00000000
F  1
  1       2.968936  1.00000000
G  1
  1       1.819850  1.00000000

H 1 -0.8544  0.8544 -0.8544
S  8
  1      23.843185  0.00411490
  2      10.212443  0.01046440
  3       4.374164  0.02801110
  4       1.873529  0.07588620
  5       0.802465  0.18210620
  6       0.343709  0.34852140
  7       0.147217  0.37823130
  8       0.063055  0.11642410
S  1
  1       0.068025  1.00000000
S  1
  1       0.171860  1.00000000
S  1
  1       0.434193  1.00000000
S  1
  1       1.096959  1.00000000
P  1
  1       0.236875  1.00000000
P  1
  1       0.641066  1.00000000
P  1
  1       1.734949  1.00000000
P  1
  1       4.695379  1.00000000
D  1
  1       0.451746  1.00000000
D  1
  1       1.155025  1.00000000
D  1
  1       2.953168  1.00000000
F  1
  1       1.100898  1.00000000
F  1
  1       2.968936  1.00000000
G  1
  1       1.819850  1.00000000

H 1  0.8544 -0.8544 -0.8544
S  8
  1      23.843185  0.00411490
  2      10.212443  0.01046440
  3       4.374164  0.02801110
  4       1.873529  0.07588620
  5       0.802465  0.18210620
  6       0.343709  0.34852140
  7       0.147217  0.37823130
  8       0.063055  0.11642410
S  1
  1       0.068025  1.00000000
S  1
  1       0.171860  1.00000000
S  1
  1       0.434193  1.00000000
S  1
  1       1.096959  1.00000000
P  1
  1       0.236875  1.00000000
P  1
  1       0.641066  1.00000000
P  1
  1       1.734949  1.00000000
P  1
  1       4.695379  1.00000000
D  1
  1       0.451746  1.00000000
D  1
  1       1.155025  1.00000000
D  1
  1       2.953168  1.00000000
F  1
  1       1.100898  1.00000000
F  1
  1       2.968936  1.00000000
G  1
  1       1.819850  1.00000000

 $END

 $ECP
Si-ccECP GEN 10 2
3
   4.000000 1 5.168316
  20.673264 3 8.861690
 -14.818174 2 3.933474
2
  14.832760 2 9.447023
  26.349664 2 2.553812
2
   7.621400 2 3.660001
  10.331583 2 1.903653
H-ccECP GEN 0 1
3
1.00000000000000    1 21.24359508259891 
21.24359508259891   3 21.24359508259891 
-10.85192405303825  2 21.77696655044365 
1
0.00000000000000    2 1.000000000000000 
H-ccECP
H-ccECP
H-ccECP

 $END

