 $CONTRL  
     CITYP=GUGA 
     SCFTYP=NONE
     MULT=1 
     ICHARG=0 
     RUNTYP=energy 
     MAXIT=100 
     PP=READ
     UNITS=ANGS 
     QMTTOL=1.0E-06
 $END

 $SYSTEM 
    MWORDS=1000  
    MEMDDI=1000 
 $END

 $GUESS 
     GUESS=MOREAD
     NORB=50
     PUNMO=.T.
     PRTMO=.T.
!     GUESS=HUCKEL
 $END

! $SCF DAMP=.T. SOSCF=.F. SHIFT=.T. RSTRCT=.T. DIIS=.T.  $end


! $MCSCF
!      CISTEP=GUGA
! $END

 $CIDRT 
      NPRT=2
      NFZC=0
      NDOC=4
 !     NAOS=1
 !     NBOS=1
      NVAL=30 
      IEXCIT=1
      GROUP=C1
 $END

 $GUGDIA NSTATE=2 $END

 $GUGDM NFLGDM(1)=0,1 IROOT=2 $END

! $CIS    
!      HAMTYP=SAPS MULT=1 NACORE=0 NSTATE=1 IROOT=1
! $END

 $GUGDIA PRTTOL=0.0000001 $END

 $DATA
Silane CIS calculation
C1
Si 14 0.0000  0.0000  0.0000
S  10
  1  9.998274  0.002894
  2  5.517644 -0.014523
  3  3.044965  0.077634
  4  1.680393 -0.224022
  5  0.927341 -0.149080
  6  0.511762  0.085944
  7  0.282421  0.355394
  8  0.155857  0.445219
  9  0.086011  0.267230
 10  0.047466  0.060787
S   1                     
  1  0.528701  1.000000
S   1                     
  1  0.090848  1.000000
P  10                     
  1  5.027868 -0.003242 
  2  2.867751  0.010649
  3  1.635683 -0.049761
  4  0.932947 -0.000017
  5  0.532126  0.106060
  6  0.303509  0.236202
  7  0.173113  0.310665
  8  0.098739  0.294696
  9  0.056318  0.153898
 10  0.032122  0.042337
P   1                     
  1  0.411682  1.000000
P   1                     
  1  0.070048  1.000000
D   1                     
  1  0.524220  1.000000
D   1                     
  1  0.168245  1.000000
F   1                     
  1  0.350329  1.000000

H 1  0.8544  0.8544  0.8544
S  8
  1      23.843185  0.00411490
  2      10.212443  0.01046440
  3       4.374164  0.02801110
  4       1.873529  0.07588620
  5       0.802465  0.18210620
  6       0.343709  0.34852140
  7       0.147217  0.37823130
  8       0.063055  0.11642410
S  1
  1       0.091791  1.00000000
S  1
  1       0.287637  1.00000000
P  1
  1       0.393954  1.00000000
P  1
  1       1.462694  1.00000000
D  1
  1       1.065841  1.00000000

H 1 -0.8544 -0.8544  0.8544
S  8
  1      23.843185  0.00411490
  2      10.212443  0.01046440
  3       4.374164  0.02801110
  4       1.873529  0.07588620
  5       0.802465  0.18210620
  6       0.343709  0.34852140
  7       0.147217  0.37823130
  8       0.063055  0.11642410
S  1
  1       0.091791  1.00000000
S  1
  1       0.287637  1.00000000
P  1
  1       0.393954  1.00000000
P  1
  1       1.462694  1.00000000
D  1
  1       1.065841  1.00000000

H 1 -0.8544  0.8544 -0.8544
S  8
  1      23.843185  0.00411490
  2      10.212443  0.01046440
  3       4.374164  0.02801110
  4       1.873529  0.07588620
  5       0.802465  0.18210620
  6       0.343709  0.34852140
  7       0.147217  0.37823130
  8       0.063055  0.11642410
S  1
  1       0.091791  1.00000000
S  1
  1       0.287637  1.00000000
P  1
  1       0.393954  1.00000000
P  1
  1       1.462694  1.00000000
D  1
  1       1.065841  1.00000000

H 1  0.8544 -0.8544 -0.8544
S  8
  1      23.843185  0.00411490
  2      10.212443  0.01046440
  3       4.374164  0.02801110
  4       1.873529  0.07588620
  5       0.802465  0.18210620
  6       0.343709  0.34852140
  7       0.147217  0.37823130
  8       0.063055  0.11642410
S  1
  1       0.091791  1.00000000
S  1
  1       0.287637  1.00000000
P  1
  1       0.393954  1.00000000
P  1
  1       1.462694  1.00000000
D  1
  1       1.065841  1.00000000

 $END

 $ECP
Si-ccECP GEN 10 2
3
   4.000000 1 5.168316
  20.673264 3 8.861690
 -14.818174 2 3.933474
2
  14.832760 2 9.447023
  26.349664 2 2.553812
2
   7.621400 2 3.660001
  10.331583 2 1.903653
H-ccECP GEN 0 1
3
1.00000000000000    1 21.24359508259891 
21.24359508259891   3 21.24359508259891 
-10.85192405303825  2 21.77696655044365 
1
0.00000000000000    2 1.000000000000000 
H-ccECP
H-ccECP
H-ccECP

 $END

 $VEC   
 1  1 7.22996612E-01 9.64711070E-03-2.40527359E-01-3.30392646E-11 0.00000000E+00
 1  2 8.64640063E-11 0.00000000E+00 0.00000000E+00-2.47246180E-11 1.69582373E-11
 1  3 0.00000000E+00-4.43913704E-11 1.39381125E-02 1.39381125E-02 1.39381125E-02
 1  4 0.00000000E+00 0.00000000E+00 0.00000000E+00 3.34666748E-02 3.34666748E-02
 1  5 3.34666748E-02 0.00000000E+00 0.00000000E+00 0.00000000E+00 0.00000000E+00
 1  6 0.00000000E+00-1.57102578E-11 0.00000000E+00 0.00000000E+00 0.00000000E+00
 1  7 0.00000000E+00 0.00000000E+00 0.00000000E+00 1.84926834E-02 3.05002286E-01
 1  8-7.03046506E-02-3.78113735E-02-7.48507842E-03-7.48507842E-03-7.48507842E-03
 1  9-3.08320656E-03-3.08320656E-03-3.08320656E-03-3.28452245E-04-3.28452245E-04
 1 10-3.28452245E-04 1.37409584E-03 1.37409584E-03 1.37409584E-03 3.05002286E-01
 1 11-7.03046506E-02-3.78113735E-02 7.48507842E-03 7.48507842E-03-7.48507842E-03
 1 12 3.08320656E-03 3.08320656E-03-3.08320656E-03-3.28452245E-04-3.28452245E-04
 1 13-3.28452245E-04 1.37409584E-03-1.37409584E-03-1.37409584E-03 3.05002286E-01
 1 14-7.03046506E-02-3.78113734E-02 7.48507842E-03-7.48507842E-03 7.48507842E-03
 1 15 3.08320656E-03-3.08320656E-03 3.08320656E-03-3.28452246E-04-3.28452246E-04
 1 16-3.28452246E-04-1.37409584E-03 1.37409584E-03-1.37409584E-03 3.05002286E-01
 1 17-7.03046506E-02-3.78113734E-02-7.48507842E-03 7.48507842E-03 7.48507842E-03
 1 18-3.08320656E-03 3.08320656E-03 3.08320656E-03-3.28452246E-04-3.28452246E-04
 1 19-3.28452246E-04-1.37409584E-03-1.37409584E-03 1.37409584E-03
 2  1 0.00000000E+00 0.00000000E+00 0.00000000E+00 5.70470040E-01-1.96971793E-02
 2  2 2.63079835E-01-3.39199991E-03 1.17118912E-04-1.56426580E-03-1.79286136E-01
 2  3 6.19038850E-03-8.26801826E-02 0.00000000E+00 0.00000000E+00 0.00000000E+00
 2  4 2.88376733E-02-2.15911958E-03 6.25324577E-02 0.00000000E+00 0.00000000E+00
 2  5 0.00000000E+00 3.17466324E-02-2.37691769E-03 6.88403302E-02-2.50358362E-02
 2  6 8.64436905E-04-1.15456084E-02-2.64963853E-04 3.53891516E-03 7.67388758E-03
 2  7 3.53891516E-03 7.67388758E-03-2.64963853E-04 0.00000000E+00 5.26618077E-01
 2  8-5.07960210E-02-7.94563616E-02-7.14459479E-04-6.94663972E-03-3.96050755E-03
 2  9-2.85855374E-03-4.28477441E-03-3.60140467E-03-6.90745064E-04 8.61015737E-04
 2 10 1.17493781E-04 4.63246712E-04-1.48444430E-04 1.12818006E-03-1.86156965E-01
 2 11 1.79561499E-02 2.80874429E-02 3.64210166E-03-2.59007858E-03 5.16020536E-03
 2 12-1.19200794E-04-1.54542146E-03 2.13358929E-03 1.21391278E-03-3.37848021E-04
 2 13-9.77788113E-04 6.06495683E-04-8.00207327E-05 1.19660375E-03-5.52108907E-01
 2 14 5.32547911E-02 8.33024291E-02-1.04064171E-03 6.85681656E-03-4.28668978E-03
 2 15-3.06365318E-03 4.39467193E-03-3.80650410E-03 6.51574717E-04-7.96604218E-04
 2 16-1.56664127E-04 4.58123727E-04 6.83512229E-05 1.12305707E-03 2.11647796E-01
 2 17-2.04149200E-02-3.19335104E-02 3.31591944E-03 2.50025541E-03 5.48638758E-03
 2 18-3.24300233E-04 1.65531898E-03 2.33868873E-03-1.17474243E-03 2.73436503E-04
 2 19 1.01695846E-03 6.11618667E-04-7.24747480E-08 1.19148077E-03
 3  1-0.00000000E+00-0.00000000E+00-0.00000000E+00-2.16316536E-01-3.93704083E-01
 3  2 4.39589918E-01 1.28621245E-03 2.34095416E-03-2.61379014E-03 6.79835105E-02
 3  3 1.23732499E-01-1.38153404E-01-0.00000000E+00-0.00000000E+00-0.00000000E+00
 3  4 4.81859450E-02-4.31561383E-02-2.37116828E-02-0.00000000E+00-0.00000000E+00
 3  5-0.00000000E+00 5.30466334E-02-4.75094522E-02-2.61035650E-02 9.49333881E-03
 3  6 1.72782272E-02-1.92919881E-02-5.29605529E-03 5.91330548E-03-2.90986145E-03
 3  7 5.91330548E-03-2.90986145E-03-5.29605529E-03-0.00000000E+00-1.10280261E-01
 3  8 1.06373076E-02 1.66391332E-02-8.73154950E-04-2.74637178E-03 6.05323321E-03
 3  9 3.64557095E-04-6.41244331E-05 1.94964571E-03 3.99312014E-04 8.65727351E-04
 3 10-1.32530076E-03 9.73065531E-04-8.29480412E-04-4.45763256E-04 6.79169444E-01
 3 11-6.55106743E-02-1.02473377E-01 6.40638572E-03 4.53316889E-03-4.04861336E-03
 3 12 4.94184422E-03 4.51316269E-03-4.40227323E-03 4.74868455E-04 8.45311828E-06
 3 13-1.12197162E-04 8.14406976E-04-7.15148700E-04-3.31431545E-04-3.99226405E-01
 3 14 3.85081974E-02 6.02354516E-02-7.39283333E-03 9.51000705E-04-4.66445167E-04
 3 15-3.73493781E-03 2.26073866E-03-2.14984920E-03-1.18224266E-03 4.21719829E-04
 3 16 5.42370109E-04 8.70668138E-04-7.71409863E-04-5.48160649E-04-1.69662777E-01
 3 17 1.63651693E-02 2.55987927E-02-1.13292658E-04-6.32853997E-03 2.47106502E-03
 3 18 8.42349313E-04-2.31654846E-03-3.02778321E-04 3.08062194E-04-1.29590030E-03
 3 19 8.95127811E-04 9.16804369E-04-8.85741574E-04-4.33828938E-04
 4  1 0.00000000E+00 0.00000000E+00 0.00000000E+00 1.51017001E-01-4.89534637E-01
 4  2-3.64121888E-01-8.97943131E-04 2.91076013E-03 2.16505921E-03-4.74613086E-02
 4  3 1.53849926E-01 1.14435469E-01 0.00000000E+00 0.00000000E+00 0.00000000E+00
 4  4-3.99134660E-02-5.36606690E-02 1.65538303E-02 0.00000000E+00 0.00000000E+00
 4  5 0.00000000E+00-4.39396800E-02-5.90736124E-02 1.82236743E-02-6.62758189E-03
 4  6 2.14838785E-02 1.59799732E-02-6.58515524E-03-4.89811951E-03 2.03146074E-03
 4  7-4.89811951E-03 2.03146074E-03-6.58515524E-03 0.00000000E+00-4.54655587E-01
 4  8 4.38547322E-02 6.85986303E-02 7.41254383E-03 6.48302902E-04 1.97266459E-03
 4  9 4.02311611E-03 2.47513454E-03 2.77821178E-03-1.09572177E-03 5.88517697E-04
 4 10 2.58762703E-04-6.96279121E-04-9.67566616E-04 4.18047291E-04-1.65676933E-02
 4 11 1.59807066E-03 2.49974068E-03 1.38274200E-03-5.38149893E-03-3.63313481E-03
 4 12 2.31649659E-04-1.31633192E-03-7.46647076E-04 3.71619078E-04-1.31262039E-03
 4 13 9.31948082E-04-7.84323225E-04-1.06227006E-03 3.23343848E-04-1.78868859E-01
 4 14 1.72531607E-02 2.69878103E-02-6.94073617E-04-2.88068088E-03-6.13395286E-03
 4 15-1.07422688E-03 2.56152221E-04-2.31913121E-03 1.22219874E-04 1.01230387E-03
 4 16-1.23226460E-03-8.23600814E-04-1.02299247E-03 2.90725597E-04 6.50092139E-01
 4 17-6.27059636E-02-9.80861813E-02-6.72387545E-03 3.14912095E-03 4.47348264E-03
 4 18-4.86569334E-03 4.04761868E-03 4.35069592E-03 6.01882817E-04-2.88201181E-04
 4 19 4.15538133E-05-6.57001532E-04-9.28289027E-04 1.96022155E-04
 5  1 0.00000000E+00 0.00000000E+00 0.00000000E+00-8.14413508E-02-1.46538145E-01
 5  2 1.52262608E-01 6.30685406E-02 1.13479784E-01-1.17912834E-01 7.95745197E-01
 5  3 1.43179139E+00-1.48772384E+00 0.00000000E+00 0.00000000E+00 0.00000000E+00
 5  4 5.06381298E-02-4.87343391E-02-2.70850324E-02 0.00000000E+00 0.00000000E+00
 5  5 0.00000000E+00-6.83809548E-02 6.58101050E-02 3.65752129E-02 2.82012856E-02
 5  6 5.07428233E-02-5.27250748E-02 3.88159171E-02-4.03322480E-02 2.15726815E-02
 5  7-4.03322480E-02 2.15726815E-02 3.88159171E-02 0.00000000E+00-5.26364663E-02
 5  8-3.49957422E-01-1.55246327E-02 1.38851804E-02 1.94927265E-02-6.24646718E-03
 5  9 6.70527418E-04 2.51108016E-03-5.93723985E-03-1.12847351E-03-2.02947006E-03
 5 10 2.10619364E-03-6.09004876E-04 3.02731941E-04 1.04100770E-04 2.64334701E-01
 5 11 1.75744872E+00 7.79630442E-02 4.15143266E-02 4.71218726E-02-4.76149875E-02
 5 12-5.89381661E-03-4.05326387E-03 3.89140985E-03 1.13351696E-03 2.03451351E-03
 5 13 2.11374509E-03 2.60573820E-04-2.78040992E-04-4.76672164E-04-1.51102763E-01
 5 14-1.00461785E+00-4.45663448E-02-1.27052206E-02 3.23437534E-02-3.28368682E-02
 5 15 6.98807843E-03-5.42165176E-04 3.80311163E-04 1.12361967E-03-2.03181590E-03
 5 16-2.11104748E-03-5.00666764E-05 3.25995038E-05 6.63038969E-04-6.05954713E-02
 5 17-4.02873453E-01-1.78720667E-02 1.49239256E-02 4.71460722E-03-2.10245864E-02
 5 18 4.23734397E-04 6.02217885E-03-2.42614116E-03-1.12866312E-03 2.02677244E-03
 5 19-2.10889125E-03-2.98364380E-04 6.13372438E-04 8.22660355E-05
 6  1 0.00000000E+00 0.00000000E+00 0.00000000E+00 6.28557984E-02-1.72590922E-01
 6  2-1.32482246E-01-4.86758070E-02 1.33655170E-01 1.02594835E-01-6.14149927E-01
 6  3 1.68634724E+00 1.29445436E+00 0.00000000E+00 0.00000000E+00 0.00000000E+00
 6  4-4.40597547E-02-5.73987376E-02 2.09040165E-02 0.00000000E+00 0.00000000E+00
 6  5 0.00000000E+00 5.94976179E-02 7.75103761E-02-2.82284636E-02-2.17655320E-02
 6  6 5.97643070E-02 4.58755857E-02 4.57169356E-02 3.50927051E-02-1.66496271E-02
 6  7 3.50927051E-02-1.66496271E-02 4.57169356E-02 0.00000000E+00-1.68383394E-01
 6  8-1.11950940E+00-4.96631050E-02 1.65615396E-02 3.68433115E-02 3.33882835E-02
 6  9-6.99842703E-03-3.41384777E-04-1.47542117E-03 8.65967682E-04-2.39282081E-03
 6 10-1.83768166E-03-5.76972277E-05 6.46871907E-05-6.53736178E-04-1.58132247E-02
 6 11-1.05135389E-01-4.66396253E-03-7.47831753E-03 1.28034544E-02 1.34760555E-02
 6 12-1.28685377E-03 5.37018849E-03 3.25547838E-03-8.70355941E-04 2.38843255E-03
 6 13-1.83404686E-03 3.60863773E-04 5.70012193E-04-1.48411176E-04-7.15783002E-02
 6 14-4.75893600E-01-2.11113492E-02-1.47563254E-02 2.42090914E-02 2.07041852E-03
 6 15 4.42311051E-04 2.66034994E-03 5.96531692E-03-8.71684476E-04-2.39051454E-03
 6 16 1.83196487E-03 6.00613682E-04 3.30262284E-04 4.57473143E-06 2.55774919E-01
 6 17 1.70053839E+00 7.54384168E-02-3.87961825E-02 4.82489485E-02 4.47939205E-02
 6 18 6.15388431E-03-3.05122332E-03-4.18525971E-03 8.76072736E-04 2.39490280E-03
 6 19 1.83976366E-03-2.97447136E-04-1.75062718E-04 5.09899734E-04
 7  1 0.00000000E+00 0.00000000E+00 0.00000000E+00-2.01758466E-01 5.38229831E-03
 7  2-1.02735466E-01 1.56242644E-01-4.16807551E-03 7.95587967E-02 1.97133678E+00
 7  3-5.25892313E-02 1.00380522E+00 0.00000000E+00 0.00000000E+00 0.00000000E+00
 7  4-3.41668377E-02 1.78999640E-03-6.70990170E-02 0.00000000E+00 0.00000000E+00
 7  5 0.00000000E+00 4.61383743E-02-2.41718371E-03 9.06094848E-02 6.98643632E-02
 7  6-1.86376737E-03 3.55749528E-02-1.42569599E-03 2.72131964E-02 5.34430123E-02
 7  7 2.72131964E-02 5.34430123E-02-1.42569599E-03 0.00000000E+00-2.07934848E-01
 7  8-1.38247015E+00-6.13284358E-02 4.45177889E-02 2.66743391E-02 3.59877831E-02
 7  9-7.43111404E-04-6.59982844E-03-3.54289682E-03-2.79746737E-03 6.95419212E-05
 7 10-1.42690247E-03-2.56969642E-04-5.86871575E-04 4.51812524E-05 6.50966492E-02
 7 11 4.32799866E-01 1.91996470E-02 2.58756993E-02 8.03224951E-03 3.53914168E-04
 7 12 3.68601894E-03-2.17069809E-03 4.92327050E-03 2.79406443E-03-7.29448669E-05
 7 13-1.42039783E-03 4.92064963E-04-1.95009263E-04 4.37043564E-04 2.15418123E-01
 7 14 1.43222325E+00 6.35355578E-02 4.54944457E-02-2.85782762E-02 3.69644398E-02
 7 15-9.75152994E-04 6.52751083E-03-3.77493842E-03 2.79764565E-03 7.96277887E-05
 7 16 1.42708075E-03-2.77499260E-04 5.74554960E-04 2.46516344E-05-7.25799247E-02
 7 17-4.82552974E-01-2.14067690E-02 2.68523561E-02-9.93618653E-03-6.22742598E-04
 7 18 3.45397735E-03 2.09838048E-03 5.15531209E-03-2.79424271E-03-7.62248431E-05
 7 19 1.42021955E-03 5.12594581E-04 1.82692648E-04 4.16513946E-04
 8  1 1.67160885E+00-2.21997493E+00 1.19114287E+01-0.00000000E+00-0.00000000E+00
 8  2 1.08280332E-11-0.00000000E+00-0.00000000E+00-0.00000000E+00-0.00000000E+00
 8  3-0.00000000E+00-0.00000000E+00-8.32343117E-01-8.32343117E-01-8.32343117E-01
 8  4-0.00000000E+00-0.00000000E+00-0.00000000E+00-2.54389543E+00-2.54389543E+00
 8  5-2.54389543E+00-0.00000000E+00-0.00000000E+00-0.00000000E+00-0.00000000E+00
 8  6-0.00000000E+00-0.00000000E+00-0.00000000E+00-0.00000000E+00-0.00000000E+00
 8  7-0.00000000E+00-0.00000000E+00-0.00000000E+00 3.14761251E-01-1.35747260E-01
 8  8-9.50398051E-01-1.08781880E+00 1.74334858E-01 1.74334858E-01 1.74334858E-01
 8  9-3.95808644E-03-3.95808644E-03-3.95808644E-03 3.71491194E-02 3.71491194E-02
 8 10 3.71491194E-02-1.37926410E-02-1.37926410E-02-1.37926410E-02-1.35747260E-01
 8 11-9.50398051E-01-1.08781880E+00-1.74334858E-01-1.74334858E-01 1.74334858E-01
 8 12 3.95808644E-03 3.95808644E-03-3.95808644E-03 3.71491194E-02 3.71491194E-02
 8 13 3.71491194E-02-1.37926410E-02 1.37926410E-02 1.37926410E-02-1.35747260E-01
 8 14-9.50398051E-01-1.08781880E+00-1.74334858E-01 1.74334858E-01-1.74334858E-01
 8 15 3.95808644E-03-3.95808644E-03 3.95808644E-03 3.71491194E-02 3.71491194E-02
 8 16 3.71491194E-02 1.37926410E-02-1.37926410E-02 1.37926410E-02-1.35747260E-01
 8 17-9.50398051E-01-1.08781880E+00 1.74334858E-01-1.74334858E-01-1.74334858E-01
 8 18-3.95808644E-03 3.95808644E-03 3.95808644E-03 3.71491194E-02 3.71491194E-02
 8 19 3.71491194E-02 1.37926410E-02 1.37926410E-02-1.37926410E-02
 9  1 4.18764599E+00-5.91582328E+00 2.79190272E+01 2.58632818E-11 1.42273657E-11
 9  2 0.00000000E+00 0.00000000E+00 0.00000000E+00 0.00000000E+00-1.32454317E-11
 9  3 0.00000000E+00 0.00000000E+00-2.28060635E+00-2.28060635E+00-2.28060635E+00
 9  4 0.00000000E+00 0.00000000E+00 0.00000000E+00-8.02560708E+00-8.02560708E+00
 9  5-8.02560708E+00 0.00000000E+00 0.00000000E+00 0.00000000E+00 0.00000000E+00
 9  6 0.00000000E+00 0.00000000E+00 0.00000000E+00 0.00000000E+00 0.00000000E+00
 9  7 0.00000000E+00 0.00000000E+00 0.00000000E+00 6.94427024E-01 2.70247175E-01
 9  8-2.53270708E+00-3.33999965E-01 3.26939779E-01 3.26939779E-01 3.26939779E-01
 9  9-3.59544226E-03-3.59544226E-03-3.59544226E-03 3.80488049E-03 3.80488049E-03
 9 10 3.80488049E-03-1.54643834E-02-1.54643834E-02-1.54643834E-02 2.70247175E-01
 9 11-2.53270708E+00-3.33999965E-01-3.26939779E-01-3.26939779E-01 3.26939779E-01
 9 12 3.59544226E-03 3.59544226E-03-3.59544226E-03 3.80488049E-03 3.80488049E-03
 9 13 3.80488049E-03-1.54643834E-02 1.54643834E-02 1.54643834E-02 2.70247175E-01
 9 14-2.53270708E+00-3.33999965E-01-3.26939779E-01 3.26939779E-01-3.26939779E-01
 9 15 3.59544226E-03-3.59544226E-03 3.59544226E-03 3.80488049E-03 3.80488049E-03
 9 16 3.80488049E-03 1.54643834E-02-1.54643834E-02 1.54643834E-02 2.70247175E-01
 9 17-2.53270708E+00-3.33999965E-01 3.26939779E-01-3.26939779E-01-3.26939779E-01
 9 18-3.59544226E-03 3.59544226E-03 3.59544226E-03 3.80488049E-03 3.80488049E-03
 9 19 3.80488049E-03 1.54643834E-02 1.54643834E-02-1.54643834E-02
10  1 2.12382124E+01 3.34916971E-01-9.19996676E+00 2.70900976E-11 0.00000000E+00
10  2 0.00000000E+00 0.00000000E+00 0.00000000E+00 0.00000000E+00-1.40892050E-11
10  3 0.00000000E+00 0.00000000E+00-3.62490850E+00-3.62490850E+00-3.62490850E+00
10  4 0.00000000E+00 0.00000000E+00 0.00000000E+00-7.07927176E-01-7.07927176E-01
10  5-7.07927176E-01 0.00000000E+00 0.00000000E+00 0.00000000E+00 0.00000000E+00
10  6 0.00000000E+00 0.00000000E+00 0.00000000E+00 0.00000000E+00 0.00000000E+00
10  7 0.00000000E+00 0.00000000E+00 0.00000000E+00 8.41653908E-01 2.53857269E-01
10  8-2.18535390E-01-1.45792120E+00 5.12149213E-01 5.12149213E-01 5.12149213E-01
10  9-7.02187257E-02-7.02187257E-02-7.02187257E-02-9.40276251E-03-9.40276251E-03
10 10-9.40276251E-03-6.58450809E-02-6.58450809E-02-6.58450809E-02 2.53857269E-01
10 11-2.18535390E-01-1.45792120E+00-5.12149213E-01-5.12149213E-01 5.12149213E-01
10 12 7.02187257E-02 7.02187257E-02-7.02187257E-02-9.40276251E-03-9.40276251E-03
10 13-9.40276251E-03-6.58450809E-02 6.58450809E-02 6.58450809E-02 2.53857269E-01
10 14-2.18535390E-01-1.45792120E+00-5.12149213E-01 5.12149213E-01-5.12149213E-01
10 15 7.02187257E-02-7.02187257E-02 7.02187257E-02-9.40276251E-03-9.40276251E-03
10 16-9.40276251E-03 6.58450809E-02-6.58450809E-02 6.58450809E-02 2.53857269E-01
10 17-2.18535390E-01-1.45792120E+00 5.12149213E-01-5.12149213E-01-5.12149213E-01
10 18-7.02187257E-02 7.02187257E-02 7.02187257E-02-9.40276251E-03-9.40276251E-03
10 19-9.40276251E-03 6.58450809E-02 6.58450809E-02-6.58450809E-02
11  1 0.00000000E+00 0.00000000E+00-1.06135164E-11-2.21871996E+00 2.36844047E+01
11  2-1.61046935E+00 5.99800405E-01-6.40275285E+00 4.35368224E-01 1.06689596E+00
11  3-1.13889072E+01 7.74411950E-01 0.00000000E+00 0.00000000E+00 0.00000000E+00
11  4-2.86337494E-02 4.21102896E-01-3.94482957E-02 0.00000000E+00 0.00000000E+00
11  5 0.00000000E+00-1.08264189E-01 1.59218979E+00-1.49153982E-01 4.49470366E-01
11  6-4.79800888E+00 3.26250389E-01-1.55091254E+00 1.05457458E-01 1.45287190E-01
11  7 1.05457458E-01 1.45287190E-01-1.55091254E+00 0.00000000E+00 1.31486938E+00
11  8-1.81907251E-01-2.83370606E+00 3.19456618E-01 3.05857847E-01 3.19137295E-01
11  9-1.40471175E-03-4.74587898E-02-2.48614194E-03 1.31421463E-01 1.53536527E-01
11 10 1.31940763E-01-9.33292286E-03 2.23529390E-02-1.00948537E-02-1.52816920E+00
11 11 2.11416480E-01 3.29339352E+00 3.71090328E-01 3.57491557E-01-3.69080059E-01
11 12-2.27250679E-03-4.83265848E-02 9.08055739E-03-1.53048111E-01-1.75163175E-01
11 13-1.56317321E-01 6.48492221E-03 2.11662005E-02-1.12815922E-02 1.82202921E+00
11 14-2.52070912E-01-3.92669818E+00-4.39895740E-01 4.28626562E-01-4.40215063E-01
11 15 1.13575361E-02-4.95221333E-02 1.02761059E-02 1.86631337E-01 2.04957891E-01
11 16 1.86112037E-01 8.11987442E-03 1.95312483E-02 7.35794357E-03-1.60872940E+00
11 17 2.22561683E-01 3.46701072E+00-3.88262030E-01 3.76992851E-01 3.90272299E-01
11 18 1.04897410E-02-4.86543383E-02-3.68169041E-03-1.65004689E-01-1.83331243E-01
11 19-1.61735478E-01-1.09678751E-02 2.07179868E-02 6.17120507E-03
12  1-4.03719817E-11 0.00000000E+00 0.00000000E+00 2.24679548E+01 2.61726700E+00
12  2 7.53712649E+00-6.07390236E+00-7.07542114E-01-2.03755842E+00-1.08039639E+01
12  3-1.25854171E+00-3.62431041E+00 1.09814010E-11 1.09827483E-11 1.09845842E-11
12  4 1.34008257E-01 4.65343643E-02 3.99474716E-01 0.00000000E+00 0.00000000E+00
12  5 0.00000000E+00 5.06685138E-01 1.75946403E-01 1.51041366E+00-4.55157932E+00
12  6-5.30208400E-01-1.52687814E+00-1.71385022E-01-4.93549410E-01-1.47125643E+00
12  7-4.93549410E-01-1.47125643E+00-1.71385022E-01 0.00000000E+00 2.16034559E+00
12  8-2.98875715E-01-4.65581180E+00 5.11161785E-01 5.21583113E-01 5.19000257E-01
12  9-4.87357802E-02-1.34425429E-02-2.21897345E-02 2.38221518E-01 2.21273785E-01
12 10 2.25474166E-01-2.57808619E-03-8.74099445E-03 1.61251563E-02-1.16208527E+00
12 11 1.60770141E-01 2.50443740E+00 2.69511853E-01 2.79933181E-01-2.85264093E-01
12 12-4.46744294E-02-9.38119211E-03-8.67266190E-03-1.37007060E-01-1.20059327E-01
12 13-1.11389907E-01 1.59069590E-02-3.18696248E-03 2.16791883E-02-1.81369972E+00
12 14 2.50918558E-01 3.90874709E+00 4.27248851E-01-4.40418235E-01 4.35087323E-01
12 15-4.73254762E-02 2.72557648E-03-2.07794305E-02-2.03074799E-01-1.81658028E-01
12 16-1.90327448E-01-6.49448719E-04 1.33694452E-02 1.80537938E-02 8.15439393E-01
12 17-1.12812984E-01-1.75737269E+00 1.85598920E-01-1.98768303E-01-2.01351159E-01
12 18-4.32641254E-02-1.33577433E-03-1.00829659E-02 1.01860341E-01 8.04435700E-02
12 19 7.62431884E-02 1.39783215E-02 7.81541326E-03 2.36078257E-02
13  1 2.05175378E-11 0.00000000E+00 0.00000000E+00-7.66391833E+00 8.16237221E-01
13  2 2.25624792E+01 2.07183484E+00-2.20658499E-01-6.09945573E+00 3.68527966E+00
13  3-3.92496671E-01-1.08494170E+01 0.00000000E+00 0.00000000E+00 0.00000000E+00
13  4 4.01155337E-01 1.45124972E-02-1.36262585E-01 0.00000000E+00 0.00000000E+00
13  5 0.00000000E+00 1.51676808E+00 5.48717431E-02-5.15208749E-01 1.55256375E+00
13  6-1.65354100E-01-4.57072816E+00-5.34492024E-02-1.47744612E+00 5.01852048E-01
13  7-1.47744612E+00 5.01852048E-01-5.34492024E-02 0.00000000E+00 1.04067906E+00
13  8-1.43974048E-01-2.24279202E+00 2.55941728E-01 2.51489767E-01 2.40073300E-01
13  9 9.39202204E-03-5.68514532E-03-4.43485552E-02 9.89721789E-02 1.06212201E-01
13 10 1.24778283E-01 2.24730642E-02-4.76757033E-03-1.53903169E-02 1.94762528E+00
13 11-2.69446657E-01-4.19737323E+00-4.67440262E-01-4.71892222E-01 4.59618730E-01
13 12 2.15497247E-02 6.47255737E-03-4.80384011E-02 2.04014524E-01 1.96774502E-01
13 13 2.16734326E-01 1.74270775E-02 1.18584915E-02 1.23574486E-03-9.32571916E-01
13 14 1.29017829E-01 2.00980776E+00 2.29772117E-01-2.26177182E-01 2.13903689E-01
13 15 9.83184824E-03 2.34288529E-03-4.39087290E-02-8.80111040E-02-9.38573836E-02
13 16-1.13817208E-01 2.30745411E-02 6.21102787E-03-1.47888400E-02-2.05573242E+00
13 17 2.84402876E-01 4.43035749E+00-4.93609873E-01 4.97204808E-01 4.85788341E-01
13 18 2.19895509E-02-9.81481740E-03-4.84782273E-02-2.14975599E-01-2.09129319E-01
13 19-2.27695401E-01 1.68256006E-02-1.04150339E-02 1.83722178E-03
14  1-0.00000000E+00-0.00000000E+00-0.00000000E+00-9.26155314E-03 1.82089626E-02
14  2 1.69553797E-02-1.18269817E-01 2.32528028E-01 2.16519804E-01-3.13393489E-01
14  3 6.16156949E-01 5.73738069E-01-0.00000000E+00-0.00000000E+00-0.00000000E+00
14  4 9.23924047E-01 9.92233657E-01-5.04675907E-01-0.00000000E+00-0.00000000E+00
14  5-0.00000000E+00 1.57482769E+00 1.69126135E+00-8.60219619E-01-6.12808798E-01
14  6 1.20483167E+00 1.12188590E+00 1.43708140E+00 1.33814657E+00-7.30937070E-01
14  7 1.33814657E+00-7.30937070E-01 1.43708140E+00-0.00000000E+00 4.34289146E-01
14  8-5.44376345E-01-3.18645509E+00 7.95710567E-01 8.94598471E-01 8.90085844E-01
14  9-1.69820814E-02-3.71695686E-02-3.62483377E-02 2.88833921E-02 4.95181795E-02
14 10 4.85765366E-02-3.89842965E-02-3.88190685E-02-4.24398091E-02 1.34262551E-01
14 11-1.68296531E-01-9.85107716E-01-2.89644374E-01-1.90756470E-01 3.17340483E-01
14 12 1.41603487E-02-6.02713856E-03-1.98143753E-02 1.80371226E-02-2.59766473E-03
14 13 2.38164271E-02-1.05082813E-02 1.51431037E-02 1.15223631E-02 1.76297981E-01
14 14-2.20987449E-01-1.29352899E+00-3.69889252E-01 4.02097987E-01-2.75513975E-01
14 15 1.64628402E-02-2.30380977E-02-2.80341616E-03 2.15061545E-02 2.82271019E-02
14 16 1.81301014E-03 1.89675272E-02-1.43327047E-02 1.55120146E-02-7.44849678E-01
14 17 9.33660326E-01 5.46509179E+00-1.45524419E+00 1.48745293E+00 1.48294030E+00
14 18 4.76052702E-02-5.41805277E-02-5.32592968E-02-6.84266693E-02-7.51476167E-02
14 19-7.42059738E-02-6.84601050E-02-6.82948770E-02 6.94741868E-02
15  1-0.00000000E+00-0.00000000E+00-0.00000000E+00-2.38943195E-02-1.46560654E-03
15  2-1.14778518E-02-3.05129903E-01-1.87157616E-02-1.46571899E-01-8.08538703E-01
15  3-4.95933616E-02-3.88388853E-01-0.00000000E+00-0.00000000E+00-0.00000000E+00
15  4-6.25445339E-01-7.98630975E-02-1.30203727E+00-0.00000000E+00-0.00000000E+00
15  5-0.00000000E+00-1.06607100E+00-1.36126576E-01-2.21932133E+00-1.58101444E+00
15  6-9.69747279E-02-7.59454534E-01-1.15668090E-01-9.05851016E-01-1.88577916E+00
15  7-9.05851016E-01-1.88577916E+00-1.15668090E-01-0.00000000E+00-6.17626423E-01
15  8 7.74187470E-01 4.53163262E+00-1.26505208E+00-1.18431358E+00-1.22035549E+00
15  9 5.13899172E-02 3.49075417E-02 4.22653239E-02-6.89189616E-02-5.20713812E-02
15 10-5.95921920E-02 5.71071011E-02 5.84267612E-02 5.54705534E-02 2.32748456E-01
15 11-2.91747457E-01-1.70771595E+00-5.30326980E-01-4.49588474E-01 4.02994829E-01
15 12 3.03082192E-02 1.38258437E-02-4.31397643E-03 3.71563753E-02 2.03087950E-02
15 13 1.05861705E-02-2.36033708E-02 2.18973633E-02 1.89411555E-02 5.68481367E-01
15 14-7.12584719E-01-4.17104678E+00-1.17123505E+00 1.07994482E+00-1.12653846E+00
15 15 4.86979958E-02-3.00615352E-02 3.95734025E-02 6.48631979E-02 4.58138038E-02
15 16 5.55364282E-02 5.24426633E-02-5.41486708E-02 5.08061156E-02-1.83603400E-01
15 17 2.30144706E-01 1.34713011E+00-4.36509953E-01 3.45219715E-01 3.09177802E-01
15 18 2.76162978E-02-8.97983721E-03-1.62205501E-03-3.31006116E-02-1.40512175E-02
15 19-6.53040676E-03-1.89389330E-02-1.76192729E-02 1.42767177E-02
16  1-0.00000000E+00-0.00000000E+00-0.00000000E+00 6.93633299E-03 1.92643003E-02
16  2-1.68997516E-02 8.85768116E-02 2.46004665E-01-2.15809434E-01 2.34712428E-01
16  3 6.51867586E-01-5.71855719E-01-0.00000000E+00-0.00000000E+00-0.00000000E+00
16  4-9.20892789E-01 1.04974059E+00 3.77971183E-01-0.00000000E+00-0.00000000E+00
16  5-0.00000000E+00-1.56966091E+00 1.78928186E+00 6.44251532E-01 4.58956060E-01
16  6 1.27466015E+00-1.11820516E+00 1.52037040E+00-1.33375631E+00 5.47426863E-01
16  7-1.33375631E+00 5.47426863E-01 1.52037040E+00-0.00000000E+00 1.55939654E-01
16  8-1.95468525E-01-1.14415639E+00 3.22655284E-01 3.67033295E-01 2.36850545E-01
16  9-1.36389585E-02-2.26985147E-02 3.87766405E-03 1.80794402E-02 2.73397316E-02
16 10 1.74696701E-04-1.70279530E-02-1.22613642E-02-1.38862471E-02-7.22626017E-01
16 11 9.05803228E-01 5.30203292E+00 1.40444934E+00 1.44882735E+00-1.44031548E+00
16 12-4.46792149E-02-5.37387711E-02 5.20011155E-02-6.48460157E-02-7.41063071E-02
16 13-7.23301497E-02 6.63581530E-02-6.60464946E-02-6.76713775E-02 4.90035299E-01
16 14-6.14253494E-01-3.59547432E+00-9.10499257E-01 1.00481586E+00-9.96303997E-01
16 15 2.17443319E-02-4.09986101E-02 3.92609544E-02 3.52305357E-02 5.49114366E-02
16 16 5.31352792E-02 4.42825872E-02-4.39709288E-02 4.74242931E-02 7.66510640E-02
16 17-9.60812088E-02-5.62402204E-01 1.71294796E-01-7.69781932E-02-2.07160943E-01
16 18-9.29592449E-03-9.95835367E-03 1.66178251E-02 1.15360397E-02-8.14486112E-03
16 19 1.90201738E-02 5.04761278E-03 9.81420156E-03-6.36083728E-03
17  1 1.49340126E+00-4.74144379E+00 1.61336773E+01 1.02601387E-11 1.00583055E-11
17  2 1.17094124E-11-0.00000000E+00-0.00000000E+00-0.00000000E+00-0.00000000E+00
17  3-0.00000000E+00-0.00000000E+00-1.94787601E+00-1.94787601E+00-1.94787601E+00
17  4-0.00000000E+00-0.00000000E+00-0.00000000E+00-5.57447345E+00-5.57447345E+00
17  5-5.57447345E+00-0.00000000E+00-0.00000000E+00-0.00000000E+00-0.00000000E+00
17  6-0.00000000E+00-0.00000000E+00-0.00000000E+00-0.00000000E+00-0.00000000E+00
17  7-0.00000000E+00-0.00000000E+00-0.00000000E+00-3.43465078E-02-2.86639861E+00
17  8-5.21706004E-01 4.39708441E+00-3.97356750E-01-3.97356750E-01-3.97356750E-01
17  9 3.20171105E-02 3.20171105E-02 3.20171105E-02-3.43854661E-01-3.43854661E-01
17 10-3.43854661E-01-1.49148390E-02-1.49148390E-02-1.49148390E-02-2.86639861E+00
17 11-5.21706004E-01 4.39708441E+00 3.97356750E-01 3.97356750E-01-3.97356750E-01
17 12-3.20171105E-02-3.20171105E-02 3.20171105E-02-3.43854661E-01-3.43854661E-01
17 13-3.43854661E-01-1.49148390E-02 1.49148390E-02 1.49148390E-02-2.86639861E+00
17 14-5.21706004E-01 4.39708441E+00 3.97356750E-01-3.97356750E-01 3.97356750E-01
17 15-3.20171105E-02 3.20171105E-02-3.20171105E-02-3.43854661E-01-3.43854661E-01
17 16-3.43854661E-01 1.49148390E-02-1.49148390E-02 1.49148390E-02-2.86639861E+00
17 17-5.21706004E-01 4.39708441E+00-3.97356750E-01 3.97356750E-01 3.97356750E-01
17 18 3.20171105E-02-3.20171105E-02-3.20171105E-02-3.43854661E-01-3.43854661E-01
17 19-3.43854661E-01 1.49148390E-02 1.49148390E-02-1.49148390E-02
18  1-0.00000000E+00-0.00000000E+00 1.68529318E-11 2.66148927E-01-1.10146000E+00
18  2-1.02705677E+00-7.31314096E-02 3.02655072E-01 2.82210828E-01-6.17145712E-01