 $CONTRL  
     SCFTYP=RHF 
     MULT=1 
     ICHARG=0 
     RUNTYP=energy 
     MAXIT=200 
     PP=READ
     UNITS=ANGS 
     ICUT=12
 $END

 $SYSTEM 
    MWORDS=1000  
    MEMDDI=1000 
 $END

 $GUESS 
    GUESS=MOREAD
    NORB=94
!    PUNMO=.T.
 $END

 $SCF FDIFF=.F. DAMP=.T. SOSCF=.F. SHIFT=.T. RSTRCT=.T. DIIS=.T.  $end


! $MCSCF
!      CISTEP=GUGA
! $END

! $CIDRT 
!      NPRT=2
!      NFZC=0
!      NDOC=4
! !     NAOS=1
! !     NBOS=1
!      NVAL=30 
!      IEXCIT=1
!      GROUP=C1
! $END
!
! $GUGDIA NSTATE=2 $END
!
! $GUGDM NFLGDM(1)=1,1 IROOT=2 $END
!
! $GUGDIA PRTTOL=0.0001 $END

! $CIS    
!      HAMTYP=SAPS MULT=1 NACORE=0 NSTATE=1 IROOT=1
! $END

 $DATA
Silane CIS calculation
C1
Si 14 0.0000  0.0000  0.0000
S  10
  1  9.998274  0.002894
  2  5.517644 -0.014523
  3  3.044965  0.077634
  4  1.680393 -0.224022
  5  0.927341 -0.149080
  6  0.511762  0.085944
  7  0.282421  0.355394
  8  0.155857  0.445219
  9  0.086011  0.267230
 10  0.047466  0.060787
S   1                     
  1  0.528701  1.000000
S   1                     
  1  0.090848  1.000000
P  10                     
  1  5.027868 -0.003242 
  2  2.867751  0.010649
  3  1.635683 -0.049761
  4  0.932947 -0.000017
  5  0.532126  0.106060
  6  0.303509  0.236202
  7  0.173113  0.310665
  8  0.098739  0.294696
  9  0.056318  0.153898
 10  0.032122  0.042337
P   1                     
  1  0.411682  1.000000
P   1                     
  1  0.070048  1.000000
D   1                     
  1  0.524220  1.000000
D   1                     
  1  0.168245  1.000000
F   1                     
  1  0.350329  1.000000

H 1  0.8544  0.8544  0.8544
S  8
  1      23.843185  0.00411490
  2      10.212443  0.01046440
  3       4.374164  0.02801110
  4       1.873529  0.07588620
  5       0.802465  0.18210620
  6       0.343709  0.34852140
  7       0.147217  0.37823130
  8       0.063055  0.11642410
S  1
  1       0.091791  1.00000000
S  1
  1       0.287637  1.00000000
P  1
  1       0.393954  1.00000000
P  1
  1       1.462694  1.00000000
D  1
  1       1.065841  1.00000000

H 1 -0.8544 -0.8544  0.8544
S  8
  1      23.843185  0.00411490
  2      10.212443  0.01046440
  3       4.374164  0.02801110
  4       1.873529  0.07588620
  5       0.802465  0.18210620
  6       0.343709  0.34852140
  7       0.147217  0.37823130
  8       0.063055  0.11642410
S  1
  1       0.091791  1.00000000
S  1
  1       0.287637  1.00000000
P  1
  1       0.393954  1.00000000
P  1
  1       1.462694  1.00000000
D  1
  1       1.065841  1.00000000

H 1 -0.8544  0.8544 -0.8544
S  8
  1      23.843185  0.00411490
  2      10.212443  0.01046440
  3       4.374164  0.02801110
  4       1.873529  0.07588620
  5       0.802465  0.18210620
  6       0.343709  0.34852140
  7       0.147217  0.37823130
  8       0.063055  0.11642410
S  1
  1       0.091791  1.00000000
S  1
  1       0.287637  1.00000000
P  1
  1       0.393954  1.00000000
P  1
  1       1.462694  1.00000000
D  1
  1       1.065841  1.00000000

H 1  0.8544 -0.8544 -0.8544
S  8
  1      23.843185  0.00411490
  2      10.212443  0.01046440
  3       4.374164  0.02801110
  4       1.873529  0.07588620
  5       0.802465  0.18210620
  6       0.343709  0.34852140
  7       0.147217  0.37823130
  8       0.063055  0.11642410
S  1
  1       0.091791  1.00000000
S  1
  1       0.287637  1.00000000
P  1
  1       0.393954  1.00000000
P  1
  1       1.462694  1.00000000
D  1
  1       1.065841  1.00000000

 $END

 $ECP
Si-ccECP GEN 10 2
3
   4.000000 1 5.168316
  20.673264 3 8.861690
 -14.818174 2 3.933474
2
  14.832760 2 9.447023
  26.349664 2 2.553812
2
   7.621400 2 3.660001
  10.331583 2 1.903653
H-ccECP GEN 0 1
3
1.00000000000000    1 21.24359508259891 
21.24359508259891   3 21.24359508259891 
-10.85192405303825  2 21.77696655044365 
1
0.00000000000000    2 1.000000000000000 
H-ccECP
H-ccECP
H-ccECP

 $END

 $VEC
 1  1 7.22996612E-01 9.64711070E-03-2.40527359E-01-1.91054357E-10-1.83476511E-10
 1  2 3.60145181E-10 5.35820111E-11 5.14520777E-11-9.71184168E-11 9.46115908E-11
 1  3 9.02489871E-11-1.72527571E-10 1.39381125E-02 1.39381125E-02 1.39381125E-02
 1  4 0.00000000E+00 0.00000000E+00 0.00000000E+00 3.34666748E-02 3.34666748E-02
 1  5 3.34666748E-02 3.17342648E-11-1.20472880E-11-1.28301038E-11 3.62819730E-11
 1  6 3.47766256E-11-6.46289903E-11 1.18141944E-11-1.87432601E-11 1.20109376E-11
 1  7-1.87575026E-11 1.19883563E-11 1.17805691E-11 1.84926834E-02 3.05002286E-01
 1  8-7.03046506E-02-3.78113735E-02-7.48507842E-03-7.48507842E-03-7.48507842E-03
 1  9-3.08320656E-03-3.08320656E-03-3.08320656E-03-3.28452244E-04-3.28452244E-04
 1 10-3.28452246E-04 1.37409584E-03 1.37409584E-03 1.37409584E-03 3.05002286E-01
 1 11-7.03046506E-02-3.78113736E-02 7.48507840E-03 7.48507840E-03-7.48507840E-03
 1 12 3.08320656E-03 3.08320656E-03-3.08320656E-03-3.28452239E-04-3.28452239E-04
 1 13-3.28452239E-04 1.37409584E-03-1.37409584E-03-1.37409584E-03 3.05002286E-01
 1 14-7.03046506E-02-3.78113734E-02 7.48507843E-03-7.48507843E-03 7.48507843E-03
 1 15 3.08320656E-03-3.08320656E-03 3.08320656E-03-3.28452249E-04-3.28452248E-04
 1 16-3.28452247E-04-1.37409584E-03 1.37409584E-03-1.37409584E-03 3.05002286E-01
 1 17-7.03046506E-02-3.78113734E-02-7.48507843E-03 7.48507843E-03 7.48507843E-03
 1 18-3.08320656E-03 3.08320656E-03 3.08320656E-03-3.28452248E-04-3.28452249E-04
 1 19-3.28452248E-04-1.37409584E-03-1.37409584E-03 1.37409584E-03
 2  1 2.95517310E-11-6.56401304E-11 3.11541501E-10 5.70470040E-01-1.96971793E-02
 2  2 2.63079835E-01-3.39199991E-03 1.17118912E-04-1.56426580E-03-1.79286136E-01
 2  3 6.19038850E-03-8.26801826E-02-1.30509176E-10-1.30500457E-10-1.30524363E-10
 2  4 2.88376733E-02-2.15911958E-03 6.25324577E-02-1.45324383E-10-1.45188679E-10
 2  5-1.45182426E-10 3.17466324E-02-2.37691769E-03 6.88403302E-02-2.50358362E-02
 2  6 8.64436905E-04-1.15456084E-02-2.64963853E-04 3.53891516E-03 7.67388758E-03
 2  7 3.53891516E-03 7.67388758E-03-2.64963853E-04 0.00000000E+00 5.26618077E-01
 2  8-5.07960210E-02-7.94563616E-02-7.14459473E-04-6.94663971E-03-3.96050754E-03
 2  9-2.85855374E-03-4.28477441E-03-3.60140467E-03-6.90745066E-04 8.61015735E-04
 2 10 1.17493779E-04 4.63246712E-04-1.48444430E-04 1.12818006E-03-1.86156965E-01
 2 11 1.79561499E-02 2.80874429E-02 3.64210165E-03-2.59007859E-03 5.16020537E-03
 2 12-1.19200795E-04-1.54542146E-03 2.13358929E-03 1.21391278E-03-3.37848023E-04
 2 13-9.77788115E-04 6.06495683E-04-8.00207331E-05 1.19660375E-03-5.52108907E-01
 2 14 5.32547911E-02 8.33024291E-02-1.04064172E-03 6.85681657E-03-4.28668979E-03
 2 15-3.06365318E-03 4.39467193E-03-3.80650410E-03 6.51574715E-04-7.96604220E-04
 2 16-1.56664129E-04 4.58123727E-04 6.83512233E-05 1.12305707E-03 2.11647796E-01
 2 17-2.04149200E-02-3.19335104E-02 3.31591945E-03 2.50025540E-03 5.48638757E-03
 2 18-3.24300232E-04 1.65531898E-03 2.33868873E-03-1.17474243E-03 2.73436501E-04
 2 19 1.01695846E-03 6.11618667E-04-7.24751890E-08 1.19148077E-03
 3  1-7.91517305E-10 6.11736709E-11-8.44714272E-11-2.16316536E-01-3.93704083E-01
 3  2 4.39589918E-01 1.28621245E-03 2.34095416E-03-2.61379014E-03 6.79835104E-02
 3  3 1.23732499E-01-1.38153404E-01 6.10376483E-11 6.10866700E-11 6.11178230E-11
 3  4 4.81859450E-02-4.31561383E-02-2.37116828E-02 8.40713106E-11 8.39228254E-11
 3  5 8.39876396E-11 5.30466334E-02-4.75094522E-02-2.61035650E-02 9.49333880E-03
 3  6 1.72782272E-02-1.92919881E-02-5.29605529E-03 5.91330548E-03-2.90986145E-03
 3  7 5.91330548E-03-2.90986145E-03-5.29605529E-03-1.70593879E-11-1.10280261E-01
 3  8 1.06373077E-02 1.66391332E-02-8.73154946E-04-2.74637178E-03 6.05323321E-03
 3  9 3.64557097E-04-6.41244310E-05 1.94964571E-03 3.99312016E-04 8.65727353E-04
 3 10-1.32530076E-03 9.73065529E-04-8.29480413E-04-4.45763257E-04 6.79169443E-01
 3 11-6.55106742E-02-1.02473377E-01 6.40638571E-03 4.53316888E-03-4.04861335E-03
 3 12 4.94184421E-03 4.51316268E-03-4.40227322E-03 4.74868457E-04 8.45312059E-06
 3 13-1.12197160E-04 8.14406974E-04-7.15148698E-04-3.31431543E-04-3.99226405E-01
 3 14 3.85081975E-02 6.02354516E-02-7.39283333E-03 9.51000710E-04-4.66445172E-04
 3 15-3.73493781E-03 2.26073866E-03-2.14984920E-03-1.18224266E-03 4.21719831E-04
 3 16 5.42370111E-04 8.70668139E-04-7.71409864E-04-5.48160647E-04-1.69662777E-01
 3 17 1.63651694E-02 2.55987927E-02-1.13292653E-04-6.32853997E-03 2.47106502E-03
 3 18 8.42349315E-04-2.31654846E-03-3.02778323E-04 3.08062196E-04-1.29590030E-03
 3 19 8.95127813E-04 9.16804370E-04-8.85741572E-04-4.33828939E-04
 4  1 2.00611798E-10 3.19302287E-11-1.98009979E-10 1.51017002E-01-4.89534637E-01
 4  2-3.64121888E-01-8.97943134E-04 2.91076013E-03 2.16505921E-03-4.74613088E-02
 4  3 1.53849926E-01 1.14435469E-01 0.00000000E+00 0.00000000E+00 0.00000000E+00
 4  4-3.99134660E-02-5.36606690E-02 1.65538304E-02 3.72424058E-11 3.71332339E-11
 4  5 3.72131229E-11-4.39396800E-02-5.90736124E-02 1.82236744E-02-6.62758191E-03
 4  6 2.14838785E-02 1.59799732E-02-6.58515524E-03-4.89811951E-03 2.03146075E-03
 4  7-4.89811951E-03 2.03146075E-03-6.58515524E-03 0.00000000E+00-4.54655587E-01
 4  8 4.38547322E-02 6.85986303E-02 7.41254383E-03 6.48302896E-04 1.97266459E-03
 4  9 4.02311611E-03 2.47513454E-03 2.77821178E-03-1.09572177E-03 5.88517699E-04
 4 10 2.58762704E-04-6.96279121E-04-9.67566616E-04 4.18047292E-04-1.65676935E-02
 4 11 1.59807068E-03 2.49974070E-03 1.38274200E-03-5.38149893E-03-3.63313481E-03
 4 12 2.31649659E-04-1.31633192E-03-7.46647075E-04 3.71619080E-04-1.31262039E-03
 4 13 9.31948083E-04-7.84323225E-04-1.06227006E-03 3.23343849E-04-1.78868859E-01
 4 14 1.72531607E-02 2.69878103E-02-6.94073616E-04-2.88068088E-03-6.13395286E-03
 4 15-1.07422688E-03 2.56152223E-04-2.31913121E-03 1.22219876E-04 1.01230387E-03
 4 16-1.23226460E-03-8.23600814E-04-1.02299247E-03 2.90725598E-04 6.50092140E-01
 4 17-6.27059636E-02-9.80861814E-02-6.72387545E-03 3.14912096E-03 4.47348265E-03
 4 18-4.86569334E-03 4.04761868E-03 4.35069592E-03 6.01882817E-04-2.88201180E-04
 4 19 4.15538148E-05-6.57001532E-04-9.28289028E-04 1.96022156E-04
 5  1 2.25712663E-09 0.00000000E+00-5.65315463E-10-8.14413518E-02-1.46538145E-01
 5  2 1.52262607E-01 6.30685407E-02 1.13479784E-01-1.17912834E-01 7.95745198E-01
 5  3 1.43179139E+00-1.48772384E+00 0.00000000E+00 0.00000000E+00 0.00000000E+00
 5  4 5.06381298E-02-4.87343392E-02-2.70850325E-02 4.16558941E-11 4.16882071E-11
 5  5 4.17063294E-11-6.83809550E-02 6.58101051E-02 3.65752128E-02 2.82012857E-02
 5  6 5.07428234E-02-5.27250748E-02 3.88159172E-02-4.03322481E-02 2.15726815E-02
 5  7-4.03322481E-02 2.15726815E-02 3.88159172E-02 5.61269503E-11-5.26364667E-02
 5  8-3.49957423E-01-1.55246326E-02 1.38851804E-02 1.94927265E-02-6.24646721E-03
 5  9 6.70527417E-04 2.51108016E-03-5.93723986E-03-1.12847351E-03-2.02947007E-03
 5 10 2.10619364E-03-6.09004874E-04 3.02731946E-04 1.04100773E-04 2.64334702E-01
 5 11 1.75744872E+00 7.79630442E-02 4.15143267E-02 4.71218727E-02-4.76149876E-02
 5 12-5.89381661E-03-4.05326387E-03 3.89140984E-03 1.13351696E-03 2.03451351E-03
 5 13 2.11374509E-03 2.60573822E-04-2.78040997E-04-4.76672171E-04-1.51102761E-01
 5 14-1.00461785E+00-4.45663452E-02-1.27052206E-02 3.23437534E-02-3.28368682E-02
 5 15 6.98807846E-03-5.42165196E-04 3.80311181E-04 1.12361967E-03-2.03181590E-03
 5 16-2.11104749E-03-5.00666829E-05 3.25995080E-05 6.63038964E-04-6.05954704E-02
 5 17-4.02873454E-01-1.78720668E-02 1.49239256E-02 4.71460725E-03-2.10245864E-02
 5 18 4.23734385E-04 6.02217887E-03-2.42614116E-03-1.12866312E-03 2.02677244E-03
 5 19-2.10889126E-03-2.98364387E-04 6.13372435E-04 8.22660380E-05
 6  1-5.54828315E-10-2.66551944E-11 2.75164039E-10 6.28557979E-02-1.72590919E-01
 6  2-1.32482246E-01-4.86758069E-02 1.33655170E-01 1.02594835E-01-6.14149926E-01
 6  3 1.68634724E+00 1.29445436E+00 0.00000000E+00 0.00000000E+00 0.00000000E+00
 6  4-4.40597547E-02-5.73987374E-02 2.09040164E-02-4.54760055E-11-4.53588594E-11
 6  5-4.53843709E-11 5.94976177E-02 7.75103766E-02-2.82284636E-02-2.17655319E-02
 6  6 5.97643070E-02 4.58755856E-02 4.57169357E-02 3.50927050E-02-1.66496271E-02
 6  7 3.50927050E-02-1.66496271E-02 4.57169357E-02-1.29718343E-11-1.68383393E-01
 6  8-1.11950940E+00-4.96631053E-02 1.65615396E-02 3.68433116E-02 3.33882835E-02
 6  9-6.99842704E-03-3.41384775E-04-1.47542119E-03 8.65967683E-04-2.39282082E-03
 6 10-1.83768165E-03-5.76972311E-05 6.46871969E-05-6.53736180E-04-1.58132265E-02
 6 11-1.05135385E-01-4.66396203E-03-7.47831749E-03 1.28034545E-02 1.34760554E-02
 6 12-1.28685380E-03 5.37018847E-03 3.25547841E-03-8.70355944E-04 2.38843256E-03
 6 13-1.83404686E-03 3.60863772E-04 5.70012200E-04-1.48411177E-04-7.15782982E-02
 6 14-4.75893602E-01-2.11113497E-02-1.47563254E-02 2.42090915E-02 2.07041848E-03
 6 15 4.42311082E-04 2.66034993E-03 5.96531694E-03-8.71684471E-04-2.39051455E-03
 6 16 1.83196487E-03 6.00613683E-04 3.30262290E-04 4.57473351E-06 2.55774917E-01
 6 17 1.70053839E+00 7.54384171E-02-3.87961825E-02 4.82489485E-02 4.47939204E-02
 6 18 6.15388433E-03-3.05122332E-03-4.18525974E-03 8.76072732E-04 2.39490281E-03
 6 19 1.83976365E-03-2.97447137E-04-1.75062709E-04 5.09899733E-04
 7  1 4.08240971E-09 2.24819643E-11-1.20038595E-09-2.01758467E-01 5.38230054E-03
 7  2-1.02735465E-01 1.56242644E-01-4.16807570E-03 7.95587969E-02 1.97133678E+00
 7  3-5.25892342E-02 1.00380522E+00 2.18275977E-11 2.18200058E-11 2.18195514E-11
 7  4-3.41668376E-02 1.78999670E-03-6.70990171E-02 1.21539695E-10 1.21554528E-10
 7  5 1.21580529E-10 4.61383746E-02-2.41718357E-03 9.06094844E-02 6.98643632E-02
 7  6-1.86376754E-03 3.55749528E-02-1.42569602E-03 2.72131965E-02 5.34430122E-02
 7  7 2.72131965E-02 5.34430122E-02-1.42569602E-03 1.00621485E-10-2.07934845E-01
 7  8-1.38247015E+00-6.13284361E-02 4.45177888E-02 2.66743390E-02 3.59877831E-02
 7  9-7.43111438E-04-6.59982846E-03-3.54289683E-03-2.79746736E-03 6.95419180E-05
 7 10-1.42690248E-03-2.56969630E-04-5.86871563E-04 4.51812558E-05 6.50966510E-02
 7 11 4.32799862E-01 1.91996465E-02 2.58756992E-02 8.03224948E-03 3.53914236E-04
 7 12 3.68601897E-03-2.17069805E-03 4.92327047E-03 2.79406442E-03-7.29448665E-05
 7 13-1.42039784E-03 4.92064973E-04-1.95009265E-04 4.37043553E-04 2.15418126E-01
 7 14 1.43222325E+00 6.35355574E-02 4.54944457E-02-2.85782763E-02 3.69644399E-02
 7 15-9.75152983E-04 6.52751080E-03-3.77493838E-03 2.79764564E-03 7.96277860E-05
 7 16 1.42708076E-03-2.77499264E-04 5.74554972E-04 2.46516217E-05-7.25799262E-02
 7 17-4.82552972E-01-2.14067686E-02 2.68523560E-02-9.93618650E-03-6.22742525E-04
 7 18 3.45397736E-03 2.09838046E-03 5.15531208E-03-2.79424271E-03-7.62248490E-05
 7 19 1.42021955E-03 5.12594576E-04 1.82692642E-04 4.16513951E-04
 8  1 1.67160890E+00-2.21997495E+00 1.19114288E+01-3.12204586E-10-1.77016031E-10
 8  2 2.04464569E-10 2.33174942E-10 7.71852644E-11-3.62854953E-11 2.81594898E-09
 8  3 8.38883120E-10-2.44260447E-10-8.32343125E-01-8.32343125E-01-8.32343125E-01
 8  4 1.93106949E-11-3.39339900E-11-9.46349127E-11-2.54389546E+00-2.54389546E+00
 8  5-2.54389546E+00 1.16140843E-11 2.71544714E-11 1.26815289E-10 1.07786817E-10
 8  6 3.97331574E-11-2.54467779E-11 2.40007761E-11 0.00000000E+00 7.90583517E-11
 8  7 0.00000000E+00 7.89965559E-11 2.40041560E-11 3.14761255E-01-1.35747247E-01
 8  8-9.50398066E-01-1.08781881E+00 1.74334860E-01 1.74334860E-01 1.74334860E-01
 8  9-3.95808663E-03-3.95808664E-03-3.95808664E-03 3.71491198E-02 3.71491198E-02
 8 10 3.71491198E-02-1.37926411E-02-1.37926411E-02-1.37926411E-02-1.35747246E-01
 8 11-9.50398063E-01-1.08781881E+00-1.74334859E-01-1.74334859E-01 1.74334859E-01
 8 12 3.95808663E-03 3.95808663E-03-3.95808663E-03 3.71491198E-02 3.71491198E-02
 8 13 3.71491198E-02-1.37926411E-02 1.37926411E-02 1.37926411E-02-1.35747247E-01
 8 14-9.50398064E-01-1.08781881E+00-1.74334859E-01 1.74334859E-01-1.74334859E-01
 8 15 3.95808664E-03-3.95808663E-03 3.95808663E-03 3.71491198E-02 3.71491198E-02
 8 16 3.71491198E-02 1.37926411E-02-1.37926411E-02 1.37926411E-02-1.35747247E-01
 8 17-9.50398066E-01-1.08781881E+00 1.74334860E-01-1.74334860E-01-1.74334860E-01
 8 18-3.95808663E-03 3.95808664E-03 3.95808664E-03 3.71491198E-02 3.71491198E-02
 8 19 3.71491198E-02 1.37926411E-02 1.37926411E-02-1.37926411E-02
 9  1 4.18764598E+00-5.91582325E+00 2.79190271E+01 2.09790463E-10 8.59910948E-11
 9  2-3.45501487E-11-1.62205483E-10-4.64172396E-11 1.44833698E-11-2.01297073E-09
 9  3-5.18304463E-10 8.11046859E-11-2.28060634E+00-2.28060634E+00-2.28060634E+00
 9  4 0.00000000E+00 1.70075882E-11 6.75349011E-11-8.02560705E+00-8.02560705E+00
 9  5-8.02560705E+00 0.00000000E+00-2.18292906E-11-9.40078942E-11-6.84561394E-11
 9  6-2.21333627E-11 0.00000000E+00-1.51328386E-11 0.00000000E+00-5.37314828E-11
 9  7 0.00000000E+00-5.37309340E-11-1.51367029E-11 6.94427021E-01 2.70247180E-01
 9  8-2.53270707E+00-3.33999962E-01 3.26939777E-01 3.26939777E-01 3.26939777E-01
 9  9-3.59544229E-03-3.59544229E-03-3.59544229E-03 3.80488041E-03 3.80488040E-03
 9 10 3.80488040E-03-1.54643833E-02-1.54643833E-02-1.54643833E-02 2.70247179E-01
 9 11-2.53270707E+00-3.33999963E-01-3.26939777E-01-3.26939777E-01 3.26939777E-01
 9 12 3.59544229E-03 3.59544230E-03-3.59544230E-03 3.80488040E-03 3.80488040E-03
 9 13 3.80488040E-03-1.54643833E-02 1.54643833E-02 1.54643833E-02 2.70247180E-01
 9 14-2.53270707E+00-3.33999963E-01-3.26939777E-01 3.26939777E-01-3.26939777E-01
 9 15 3.59544229E-03-3.59544230E-03 3.59544230E-03 3.80488040E-03 3.80488040E-03
 9 16 3.80488040E-03 1.54643833E-02-1.54643833E-02 1.54643833E-02 2.70247180E-01
 9 17-2.53270707E+00-3.33999962E-01 3.26939777E-01-3.26939777E-01-3.26939777E-01
 9 18-3.59544230E-03 3.59544229E-03 3.59544229E-03 3.80488041E-03 3.80488040E-03
 9 19 3.80488040E-03 1.54643833E-02 1.54643833E-02-1.54643833E-02
10  1 2.12382124E+01 3.34916998E-01-9.19996689E+00 1.46761392E-10 3.50152247E-11
10  2 3.79615982E-11-9.11848778E-11-2.37469325E-11 0.00000000E+00-1.00619602E-09
10  3-2.21554546E-10 0.00000000E+00-3.62490849E+00-3.62490849E+00-3.62490849E+00
10  4 0.00000000E+00 0.00000000E+00 3.38205282E-11-7.07927136E-01-7.07927136E-01
10  5-7.07927136E-01 0.00000000E+00 0.00000000E+00-4.39079237E-11-3.82160259E-11
10  6-1.17506581E-11 0.00000000E+00 0.00000000E+00 0.00000000E+00-2.77534481E-11
10  7 0.00000000E+00-2.77412946E-11 0.00000000E+00 8.41653906E-01 2.53857275E-01
10  8-2.18535380E-01-1.45792121E+00 5.12149212E-01 5.12149212E-01 5.12149212E-01
10  9-7.02187258E-02-7.02187258E-02-7.02187258E-02-9.40276233E-03-9.40276233E-03
10 10-9.40276233E-03-6.58450809E-02-6.58450809E-02-6.58450809E-02 2.53857275E-01
10 11-2.18535381E-01-1.45792121E+00-5.12149212E-01-5.12149212E-01 5.12149212E-01
10 12 7.02187258E-02 7.02187258E-02-7.02187258E-02-9.40276233E-03-9.40276233E-03
10 13-9.40276233E-03-6.58450809E-02 6.58450809E-02 6.58450809E-02 2.53857275E-01
10 14-2.18535381E-01-1.45792121E+00-5.12149212E-01 5.12149212E-01-5.12149212E-01
10 15 7.02187258E-02-7.02187258E-02 7.02187258E-02-9.40276233E-03-9.40276233E-03
10 16-9.40276233E-03 6.58450809E-02-6.58450809E-02 6.58450809E-02 2.53857275E-01
10 17-2.18535380E-01-1.45792121E+00 5.12149212E-01-5.12149212E-01-5.12149212E-01
10 18-7.02187258E-02 7.02187258E-02 7.02187258E-02-9.40276233E-03-9.40276233E-03
10 19-9.40276233E-03 6.58450809E-02 6.58450809E-02-6.58450809E-02
11  1-3.80443125E-09 1.74130169E-09-7.88827954E-09-2.21871996E+00 2.36844047E+01
11  2-1.61046935E+00 5.99800405E-01-6.40275285E+00 4.35368224E-01 1.06689597E+00
11  3-1.13889072E+01 7.74411948E-01 1.83780775E-09 1.83781245E-09 1.83781133E-09
11  4-2.86337491E-02 4.21102896E-01-3.94482957E-02 2.52897983E-09 2.52898248E-09
11  5 2.52898569E-09-1.08264189E-01 1.59218979E+00-1.49153981E-01 4.49470366E-01
11  6-4.79800888E+00 3.26250389E-01-1.55091254E+00 1.05457458E-01 1.45287190E-01
11  7 1.05457458E-01 1.45287190E-01-1.55091254E+00-3.96889121E-10 1.31486938E+00
11  8-1.81907231E-01-2.83370606E+00 3.19456617E-01 3.05857846E-01 3.19137294E-01
11  9-1.40471158E-03-4.74587898E-02-2.48614179E-03 1.31421463E-01 1.53536527E-01
11 10 1.31940763E-01-9.33292280E-03 2.23529390E-02-1.00948536E-02-1.52816919E+00
11 11 2.11416461E-01 3.29339352E+00 3.71090328E-01 3.57491556E-01-3.69080059E-01
11 12-2.27250661E-03-4.83265848E-02 9.08055724E-03-1.53048111E-01-1.75163175E-01
11 13-1.56317321E-01 6.48492224E-03 2.11662004E-02-1.12815922E-02 1.82202920E+00
11 14-2.52070884E-01-3.92669817E+00-4.39895739E-01 4.28626560E-01-4.40215062E-01
11 15 1.13575359E-02-4.95221332E-02 1.02761057E-02 1.86631337E-01 2.04957891E-01
11 16 1.86112037E-01 8.11987437E-03 1.95312483E-02 7.35794352E-03-1.60872939E+00
11 17 2.22561656E-01 3.46701072E+00-3.88262030E-01 3.76992850E-01 3.90272299E-01
11 18 1.04897408E-02-4.86543383E-02-3.68169022E-03-1.65004689E-01-1.83331243E-01
11 19-1.61735478E-01-1.09678751E-02 2.07179867E-02 6.17120510E-03
12  1-2.64159074E-09 1.08867147E-09-5.11314739E-09 2.24679548E+01 2.61726700E+00
12  2 7.53712650E+00-6.07390236E+00-7.07542112E-01-2.03755842E+00-1.08039639E+01
12  3-1.25854170E+00-3.62431041E+00 1.30361760E-09 1.30361222E-09 1.30361849E-09
12  4 1.34008257E-01 4.65343643E-02 3.99474716E-01 1.55252673E-09 1.55258368E-09
12  5 1.55257293E-09 5.06685139E-01 1.75946403E-01 1.51041366E+00-4.55157932E+00
12  6-5.30208399E-01-1.52687814E+00-1.71385021E-01-4.93549410E-01-1.47125643E+00
12  7-4.93549410E-01-1.47125643E+00-1.71385021E-01-2.75965374E-10 2.16034560E+00
12  8-2.98875727E-01-4.65581180E+00 5.11161785E-01 5.21583113E-01 5.19000257E-01
12  9-4.87357803E-02-1.34425430E-02-2.21897346E-02 2.38221518E-01 2.21273785E-01
12 10 2.25474166E-01-2.57808616E-03-8.74099442E-03 1.61251563E-02-1.16208527E+00
12 11 1.60770151E-01 2.50443740E+00 2.69511854E-01 2.79933182E-01-2.85264093E-01
12 12-4.46744294E-02-9.38119212E-03-8.67266184E-03-1.37007060E-01-1.20059327E-01
12 13-1.11389907E-01 1.59069590E-02-3.18696251E-03 2.16791883E-02-1.81369972E+00
12 14 2.50918563E-01 3.90874709E+00 4.27248852E-01-4.40418235E-01 4.35087324E-01
12 15-4.73254762E-02 2.72557656E-03-2.07794305E-02-2.03074799E-01-1.81658028E-01
12 16-1.90327448E-01-6.49448740E-04 1.33694452E-02 1.80537938E-02 8.15439390E-01
12 17-1.12812986E-01-1.75737269E+00 1.85598920E-01-1.98768303E-01-2.01351159E-01
12 18-4.32641253E-02-1.33577432E-03-1.00829659E-02 1.01860341E-01 8.04435700E-02
12 19 7.62431884E-02 1.39783215E-02 7.81541324E-03 2.36078257E-02
13  1 1.57100736E-09-4.98588333E-10 2.17135307E-09-7.66391832E+00 8.16237227E-01
13  2 2.25624792E+01 2.07183484E+00-2.20658500E-01-6.09945573E+00 3.68527966E+00
13  3-3.92496674E-01-1.08494170E+01-7.29471433E-10-7.29470934E-10-7.29472638E-10
13  4 4.01155338E-01 1.45124974E-02-1.36262585E-01-7.58873895E-10-7.58865413E-10
13  5-7.58866644E-10 1.51676808E+00 5.48717435E-02-5.15208748E-01 1.55256375E+00
13  6-1.65354101E-01-4.57072816E+00-5.34492028E-02-1.47744612E+00 5.01852048E-01
13  7-1.47744612E+00 5.01852048E-01-5.34492028E-02 1.46818389E-10 1.04067907E+00
13  8-1.43974054E-01-2.24279202E+00 2.55941728E-01 2.51489767E-01 2.40073300E-01
13  9 9.39202197E-03-5.68514542E-03-4.43485553E-02 9.89721790E-02 1.06212201E-01
13 10 1.24778283E-01 2.24730642E-02-4.76757035E-03-1.53903169E-02 1.94762528E+00
13 11-2.69446656E-01-4.19737323E+00-4.67440262E-01-4.71892222E-01 4.59618730E-01
13 12 2.15497247E-02 6.47255737E-03-4.80384011E-02 2.04014524E-01 1.96774502E-01
13 13 2.16734326E-01 1.74270775E-02 1.18584915E-02 1.23574489E-03-9.32571923E-01
13 14 1.29017835E-01 2.00980776E+00 2.29772117E-01-2.26177182E-01 2.13903689E-01
13 15 9.83184819E-03 2.34288536E-03-4.39087291E-02-8.80111040E-02-9.38573836E-02
13 16-1.13817208E-01 2.30745411E-02 6.21102787E-03-1.47888400E-02-2.05573242E+00
13 17 2.84402874E-01 4.43035749E+00-4.93609873E-01 4.97204808E-01 4.85788341E-01
13 18 2.19895509E-02-9.81481742E-03-4.84782273E-02-2.14975599E-01-2.09129319E-01
13 19-2.27695401E-01 1.68256006E-02-1.04150339E-02 1.83722178E-03
14  1-2.47806292E-09 9.03614065E-10-4.22746734E-09-9.26156142E-03 1.82089778E-02
14  2 1.69553766E-02-1.18269815E-01 2.32528025E-01 2.16519806E-01-3.13393486E-01
14  3 6.16156935E-01 5.73738079E-01 1.03677635E-09 1.03678314E-09 1.03677761E-09
14  4 9.23924048E-01 9.92233659E-01-5.04675908E-01 1.23963627E-09 1.23963629E-09
14  5 1.23963759E-09 1.57482769E+00 1.69126135E+00-8.60219621E-01-6.12808797E-01
14  6 1.20483167E+00 1.12188590E+00 1.43708140E+00 1.33814657E+00-7.30937070E-01
14  7 1.33814657E+00-7.30937070E-01 1.43708140E+00-2.36352933E-10 4.34289151E-01
14  8-5.44376345E-01-3.18645509E+00 7.95710568E-01 8.94598472E-01 8.90085845E-01
14  9-1.69820814E-02-3.71695687E-02-3.62483377E-02 2.88833921E-02 4.95181795E-02
14 10 4.85765366E-02-3.89842965E-02-3.88190685E-02-4.24398091E-02 1.34262548E-01
14 11-1.68296539E-01-9.85107716E-01-2.89644374E-01-1.90756470E-01 3.17340483E-01
14 12 1.41603487E-02-6.02713859E-03-1.98143753E-02 1.80371226E-02-2.59766480E-03
14 13 2.38164271E-02-1.05082813E-02 1.51431037E-02 1.15223631E-02 1.76297988E-01
14 14-2.20987442E-01-1.29352899E+00-3.69889252E-01 4.02097987E-01-2.75513975E-01
14 15 1.64628402E-02-2.30380978E-02-2.80341614E-03 2.15061546E-02 2.82271021E-02
14 16 1.81301028E-03 1.89675272E-02-1.43327047E-02 1.55120146E-02-7.44849683E-01
14 17 9.33660328E-01 5.46509180E+00-1.45524419E+00 1.48745293E+00 1.48294030E+00
14 18 4.76052703E-02-5.41805278E-02-5.32592969E-02-6.84266695E-02-7.51476169E-02
14 19-7.42059740E-02-6.84601051E-02-6.82948771E-02 6.94741869E-02
15  1 1.25899170E-09 2.69462122E-09-1.53774446E-08-2.38943144E-02-1.46559747E-03
15  2-1.14778353E-02-3.05129904E-01-1.87157646E-02-1.46571905E-01-8.08538708E-01
15  3-4.95933674E-02-3.88388855E-01 3.00652703E-10 3.00658441E-10 3.00658584E-10
15  4-6.25445340E-01-7.98630977E-02-1.30203727E+00 2.95154968E-09 2.95153404E-09
15  5 2.95152998E-09-1.06607100E+00-1.36126576E-01-2.21932133E+00-1.58101444E+00
15  6-9.69747303E-02-7.59454539E-01-1.15668091E-01-9.05851018E-01-1.88577916E+00
15  7-9.05851018E-01-1.88577916E+00-1.15668091E-01-2.22151319E-10-6.17626426E-01
15  8 7.74187470E-01 4.53163262E+00-1.26505208E+00-1.18431358E+00-1.22035549E+00
15  9 5.13899172E-02 3.49075417E-02 4.22653239E-02-6.89189614E-02-5.20713810E-02
15 10-5.95921918E-02 5.71071011E-02 5.84267612E-02 5.54705534E-02 2.32748453E-01
15 11-2.91747461E-01-1.70771595E+00-5.30326980E-01-4.49588474E-01 4.02994829E-01
15 12 3.03082192E-02 1.38258437E-02-4.31397647E-03 3.71563753E-02 2.03087950E-02
15 13 1.05861705E-02-2.36033708E-02 2.18973633E-02 1.89411555E-02 5.68481368E-01
15 14-7.12584715E-01-4.17104678E+00-1.17123505E+00 1.07994482E+00-1.12653846E+00
15 15 4.86979958E-02-3.00615352E-02 3.95734025E-02 6.48631978E-02 4.58138037E-02
15 16 5.55364280E-02 5.24426633E-02-5.41486708E-02 5.08061156E-02-1.83603396E-01
15 17 2.30144711E-01 1.34713011E+00-4.36509954E-01 3.45219716E-01 3.09177803E-01
15 18 2.76162978E-02-8.97983721E-03-1.62205501E-03-3.31006118E-02-1.40512177E-02
15 19-6.53040700E-03-1.89389330E-02-1.76192729E-02 1.42767177E-02
16  1 2.69907372E-09-2.33215893E-09 1.15960416E-08 6.93634251E-03 1.92643180E-02
16  2-1.68997456E-02 8.85768088E-02 2.46004659E-01-2.15809437E-01 2.34712422E-01
16  3 6.51867566E-01-5.71855727E-01-1.47126388E-09-1.47126941E-09-1.47127251E-09
16  4-9.20892790E-01 1.04974059E+00 3.77971183E-01-3.03217936E-09-3.03216435E-09
16  5-3.03216556E-09-1.56966091E+00 1.78928186E+00 6.44251533E-01 4.58956058E-01
16  6 1.27466014E+00-1.11820516E+00 1.52037039E+00-1.33375631E+00 5.47426863E-01
16  7-1.33375631E+00 5.47426863E-01 1.52037039E+00 3.86663390E-10 1.55939651E-01
16  8-1.95468517E-01-1.14415639E+00 3.22655283E-01 3.67033294E-01 2.36850544E-01
16  9-1.36389584E-02-2.26985146E-02 3.87766413E-03 1.80794404E-02 2.73397318E-02
16 10 1.74696912E-04-1.70279529E-02-1.22613641E-02-1.38862470E-02-7.22626020E-01
16 11 9.05803223E-01 5.30203292E+00 1.40444934E+00 1.44882735E+00-1.44031548E+00
16 12-4.46792149E-02-5.37387711E-02 5.20011154E-02-6.48460158E-02-7.41063071E-02
16 13-7.23301497E-02 6.63581529E-02-6.60464945E-02-6.76713774E-02 4.90035299E-01
16 14-6.14253493E-01-3.59547432E+00-9.10499256E-01 1.00481586E+00-9.96303996E-01
16 15 2.17443318E-02-4.09986101E-02 3.92609543E-02 3.52305356E-02 5.49114366E-02
16 16 5.31352791E-02 4.42825872E-02-4.39709287E-02 4.74242931E-02 7.66510655E-02
16 17-9.60812168E-02-5.62402212E-01 1.71294798E-01-7.69781958E-02-2.07160945E-01
16 18-9.29592463E-03-9.95835358E-03 1.66178252E-02 1.15360397E-02-8.14486110E-03
16 19 1.90201738E-02 5.04761291E-03 9.81420170E-03-6.36083740E-03
17  1 1.49340119E+00-4.74144378E+00 1.61336773E+01-9.26313908E-10-2.53876642E-09
17  2-1.02316983E-10 3.05270768E-10 7.21866855E-10 1.64529024E-10 8.99153345E-10
17  3 1.38731030E-09 3.84698546E-10-1.94787598E+00-1.94787598E+00-1.94787598E+00
17  4 5.73378600E-10 6.77111343E-11 1.12977020E-10-5.57447342E+00-5.57447342E+00
17  5-5.57447342E+00 9.70047701E-10 3.18482968E-11 1.98544547E-10 3.69790073E-10
17  6 6.59205680E-10 7.20397156E-10 3.37295591E-10 8.38740571E-10 2.75141552E-10
17  7 8.38740314E-10 2.75154554E-10 3.37295281E-10-3.43465124E-02-2.86639860E+00
17  8-5.21706002E-01 4.39708441E+00-3.97356754E-01-3.97356754E-01-3.97356754E-01
17  9 3.20171107E-02 3.20171107E-02 3.20171107E-02-3.43854661E-01-3.43854661E-01
17 10-3.43854661E-01-1.49148386E-02-1.49148386E-02-1.49148386E-02-2.86639860E+00
17 11-5.21706001E-01 4.39708441E+00 3.97356754E-01 3.97356754E-01-3.97356754E-01
17 12-3.20171107E-02-3.20171107E-02 3.20171107E-02-3.43854661E-01-3.43854661E-01
17 13-3.43854661E-01-1.49148386E-02 1.49148386E-02 1.49148386E-02-2.86639860E+00
17 14-5.21706001E-01 4.39708441E+00 3.97356754E-01-3.97356754E-01 3.97356754E-01
17 15-3.20171107E-02 3.20171107E-02-3.20171107E-02-3.43854661E-01-3.43854661E-01
17 16-3.43854661E-01 1.49148386E-02-1.49148386E-02 1.49148386E-02-2.86639860E+00
17 17-5.21706002E-01 4.39708441E+00-3.97356754E-01 3.97356754E-01 3.97356754E-01
17 18 3.20171107E-02-3.20171107E-02-3.20171107E-02-3.43854661E-01-3.43854661E-01
17 19-3.43854661E-01 1.49148386E-02 1.49148386E-02-1.49148386E-02
18  1-3.22003956E-09 8.75882430E-10-3.06504685E-09 2.66148876E-01-1.10145996E+00
18  2-1.02705674E+00-7.31313947E-02 3.02655063E-01 2.82210820E-01-6.17145687E-01