 $CONTRL  
     CITYP=GUGA 
     SCFTYP=NONE
     MULT=1 
     ICHARG=0 
     RUNTYP=energy 
     MAXIT=100 
     PP=READ
     UNITS=ANGS 
     QMTTOL=1.0E-06
 $END

 $SYSTEM 
    MWORDS=1000  
    MEMDDI=1000 
 $END

 $GUESS 
     GUESS=MOREAD
     NORB=40
     PUNMO=.T.
     PRTMO=.T.
!     GUESS=HUCKEL
 $END

! $SCF DAMP=.T. SOSCF=.F. SHIFT=.T. RSTRCT=.T. DIIS=.T.  $end


! $MCSCF
!      CISTEP=GUGA
! $END

 $CIDRT 
      NPRT=2
      NFZC=0
      NDOC=4
 !     NAOS=1
 !     NBOS=1
      NVAL=30 
      IEXCIT=1
      GROUP=C1
 $END

 $GUGDIA NSTATE=2 $END

 $GUGDM NFLGDM(1)=0,1 IROOT=2 $END

! $CIS    
!      HAMTYP=SAPS MULT=1 NACORE=0 NSTATE=1 IROOT=1
! $END

 $GUGDIA PRTTOL=0.0000001 $END

 $DATA
Silane CIS calculation
C1
Si 14 0.0000  0.0000  0.0000
S  10
  1  9.998274  0.002894
  2  5.517644 -0.014523
  3  3.044965  0.077634
  4  1.680393 -0.224022
  5  0.927341 -0.149080
  6  0.511762  0.085944
  7  0.282421  0.355394
  8  0.155857  0.445219
  9  0.086011  0.267230
 10  0.047466  0.060787
S   1                     
  1  0.488504  1.000000
S   1                     
  1  0.199457  1.000000
S   1                     
  1  0.081439  1.000000
P  10                     
  1  5.027868 -0.003242 
  2  2.867751  0.010649
  3  1.635683 -0.049761
  4  0.932947 -0.000017
  5  0.532126  0.106060
  6  0.303509  0.236202
  7  0.173113  0.310665
  8  0.098739  0.294696
  9  0.056318  0.153898
 10  0.032122  0.042337
P   1                     
  1  1.225790  1.000000
P   1                     
  1  0.501364  1.000000
P   1                     
  1  0.205064  1.000000
D   1                     
  1  0.997003  1.000000
D   1                     
  1  0.365942  1.000000
D   1                     
  1  0.134316  1.000000
F   1                     
  1  0.549116  1.000000
F   1                     
  1  0.214998  1.000000
G   1                     
  1  0.459547  1.000000

H 1  0.8544  0.8544  0.8544
S  8
  1      23.843185  0.00411490
  2      10.212443  0.01046440
  3       4.374164  0.02801110
  4       1.873529  0.07588620
  5       0.802465  0.18210620
  6       0.343709  0.34852140
  7       0.147217  0.37823130
  8       0.063055  0.11642410
S  1
  1       0.081856  1.00000000
S  1
  1       0.233254  1.00000000
S  1
  1       0.664673  1.00000000
P  1
  1       0.284469  1.00000000
P  1
  1       0.847159  1.00000000
P  1
  1       2.522868  1.00000000
D  1
  1       0.665279  1.00000000
D  1
  1       2.048739  1.00000000
F  1
  1       1.421460  1.00000000

H 1 -0.8544 -0.8544  0.8544
S  8
  1      23.843185  0.00411490
  2      10.212443  0.01046440
  3       4.374164  0.02801110
  4       1.873529  0.07588620
  5       0.802465  0.18210620
  6       0.343709  0.34852140
  7       0.147217  0.37823130
  8       0.063055  0.11642410
S  1
  1       0.081856  1.00000000
S  1
  1       0.233254  1.00000000
S  1
  1       0.664673  1.00000000
P  1
  1       0.284469  1.00000000
P  1
  1       0.847159  1.00000000
P  1
  1       2.522868  1.00000000
D  1
  1       0.665279  1.00000000
D  1
  1       2.048739  1.00000000
F  1
  1       1.421460  1.00000000

H 1 -0.8544  0.8544 -0.8544
S  8
  1      23.843185  0.00411490
  2      10.212443  0.01046440
  3       4.374164  0.02801110
  4       1.873529  0.07588620
  5       0.802465  0.18210620
  6       0.343709  0.34852140
  7       0.147217  0.37823130
  8       0.063055  0.11642410
S  1
  1       0.081856  1.00000000
S  1
  1       0.233254  1.00000000
S  1
  1       0.664673  1.00000000
P  1
  1       0.284469  1.00000000
P  1
  1       0.847159  1.00000000
P  1
  1       2.522868  1.00000000
D  1
  1       0.665279  1.00000000
D  1
  1       2.048739  1.00000000
F  1
  1       1.421460  1.00000000

H 1  0.8544 -0.8544 -0.8544
S  8
  1      23.843185  0.00411490
  2      10.212443  0.01046440
  3       4.374164  0.02801110
  4       1.873529  0.07588620
  5       0.802465  0.18210620
  6       0.343709  0.34852140
  7       0.147217  0.37823130
  8       0.063055  0.11642410
S  1
  1       0.081856  1.00000000
S  1
  1       0.233254  1.00000000
S  1
  1       0.664673  1.00000000
P  1
  1       0.284469  1.00000000
P  1
  1       0.847159  1.00000000
P  1
  1       2.522868  1.00000000
D  1
  1       0.665279  1.00000000
D  1
  1       2.048739  1.00000000
F  1
  1       1.421460  1.00000000

 $END

 $ECP
Si-ccECP GEN 10 2
3
   4.000000 1 5.168316
  20.673264 3 8.861690
 -14.818174 2 3.933474
2
  14.832760 2 9.447023
  26.349664 2 2.553812
2
   7.621400 2 3.660001
  10.331583 2 1.903653
H-ccECP GEN 0 1
3
1.00000000000000    1 21.24359508259891 
21.24359508259891   3 21.24359508259891 
-10.85192405303825  2 21.77696655044365 
1
0.00000000000000    2 1.000000000000000 
H-ccECP
H-ccECP
H-ccECP

 $END
 $VEC   
 1  1 7.81275390E-01 4.11293693E-02-5.77837227E-02-2.46917290E-01 0.00000000E+00
 1  2 0.00000000E+00 1.33898447E-11 0.00000000E+00 0.00000000E+00 0.00000000E+00
 1  3 0.00000000E+00 0.00000000E+00 0.00000000E+00 1.17872025E-11 0.00000000E+00
 1  4 2.14991519E-11-3.91751207E-03-3.91751207E-03-3.91751207E-03 0.00000000E+00
 1  5 0.00000000E+00 0.00000000E+00 2.11896468E-02 2.11896468E-02 2.11896468E-02
 1  6 1.03242110E-11 0.00000000E+00 0.00000000E+00 3.30468364E-02 3.30468364E-02
 1  7 3.30468365E-02 1.72428387E-11 1.20565986E-11 1.65907356E-11 0.00000000E+00
 1  8 0.00000000E+00 0.00000000E+00 0.00000000E+00 0.00000000E+00 0.00000000E+00
 1  9 0.00000000E+00 0.00000000E+00 0.00000000E+00 1.81488209E-02 0.00000000E+00
 1 10 0.00000000E+00 0.00000000E+00 0.00000000E+00 0.00000000E+00 0.00000000E+00
 1 11 0.00000000E+00 0.00000000E+00 0.00000000E+00 1.48518729E-02-4.45827846E-03
 1 12-4.45827846E-03-4.45827847E-03 0.00000000E+00 0.00000000E+00 0.00000000E+00
 1 13 0.00000000E+00 0.00000000E+00 0.00000000E+00 4.07788460E-03 4.07788459E-03
 1 14 4.07788460E-03 0.00000000E+00 0.00000000E+00 0.00000000E+00 3.32080324E-01
 1 15-6.50872400E-02-7.05238808E-02-1.88210876E-02-3.14856057E-03-3.14856057E-03
 1 16-3.14856058E-03-3.11567737E-03-3.11567737E-03-3.11567736E-03-9.78245683E-04
 1 17-9.78245683E-04-9.78245685E-04 1.01788482E-03 1.01788483E-03 1.01788482E-03
 1 18-1.84172478E-04-1.84172477E-04-1.84172478E-04 4.51178887E-04 4.51178887E-04
 1 19 4.51178888E-04 2.18214397E-04 2.18214397E-04 2.18214397E-04 7.38119802E-05
 1 20 7.38119799E-05 7.38119786E-05 2.69341934E-05 2.69341922E-05 2.69341931E-05
 1 21 2.69341921E-05 2.69341933E-05 2.69341934E-05 3.48981255E-05 3.32080324E-01
 1 22-6.50872400E-02-7.05238807E-02-1.88210875E-02 3.14856059E-03 3.14856059E-03
 1 23-3.14856059E-03 3.11567738E-03 3.11567738E-03-3.11567741E-03 9.78245681E-04
 1 24 9.78245679E-04-9.78245673E-04 1.01788482E-03 1.01788482E-03 1.01788482E-03
 1 25-1.84172474E-04 1.84172474E-04 1.84172474E-04 4.51178884E-04 4.51178884E-04
 1 26 4.51178885E-04 2.18214397E-04-2.18214397E-04-2.18214397E-04-7.38119837E-05
 1 27-7.38119857E-05 7.38119987E-05-2.69341957E-05 2.69342011E-05-2.69341945E-05
 1 28 2.69342010E-05-2.69341945E-05-2.69341956E-05 3.48981251E-05 3.32080324E-01
 1 29-6.50872400E-02-7.05238807E-02-1.88210875E-02 3.14856059E-03-3.14856058E-03
 1 30 3.14856060E-03 3.11567739E-03-3.11567743E-03 3.11567739E-03 9.78245678E-04
 1 31-9.78245668E-04 9.78245679E-04 1.01788482E-03 1.01788483E-03 1.01788482E-03
 1 32 1.84172473E-04-1.84172472E-04 1.84172473E-04 4.51178885E-04 4.51178885E-04
 1 33 4.51178885E-04-2.18214397E-04 2.18214397E-04-2.18214397E-04-7.38119887E-05
 1 34 7.38120050E-05-7.38119877E-05 2.69342044E-05-2.69341960E-05-2.69341966E-05
 1 35-2.69341958E-05-2.69341968E-05 2.69342044E-05 3.48981251E-05 3.32080324E-01
 1 36-6.50872400E-02-7.05238807E-02-1.88210875E-02-3.14856058E-03 3.14856059E-03
 1 37 3.14856060E-03-3.11567742E-03 3.11567739E-03 3.11567738E-03-9.78245670E-04
 1 38 9.78245678E-04 9.78245680E-04 1.01788482E-03 1.01788483E-03 1.01788482E-03
 1 39 1.84172474E-04 1.84172473E-04-1.84172473E-04 4.51178885E-04 4.51178885E-04
 1 40 4.51178886E-04-2.18214397E-04-2.18214397E-04 2.18214397E-04 7.38120026E-05
 1 41-7.38119879E-05-7.38119851E-05-2.69341966E-05-2.69341948E-05 2.69342030E-05
 1 42-2.69341948E-05 2.69342032E-05-2.69341968E-05 3.48981251E-05
 2  1 4.81161915E-11-1.11458162E-10 4.94993856E-10-3.65558317E-10 2.69435752E-02
 2  2-6.88933389E-02-1.63793665E-01-5.09287465E-03 1.30222191E-02 3.09602791E-02
 2  3 1.61771699E-02-4.13641933E-02-9.83432207E-02 2.37613311E-02-6.07565040E-02
 2  4-1.44448370E-01 0.00000000E+00 0.00000000E+00 0.00000000E+00-3.51171941E-02
 2  5-1.47706613E-02 5.77667492E-03-4.85492011E-11-4.90149849E-11-4.95071018E-11
 2  6-1.32610158E-02-5.57772274E-03 2.18139801E-03 8.68937411E-11 8.68894004E-11
 2  7 8.68023446E-11-3.54259845E-02-1.49005418E-02 5.82747003E-03-1.79417254E-03
 2  8 4.58760710E-03 1.09070194E-02-1.09712567E-03-2.60841233E-03 4.29076140E-04
 2  9-2.60841233E-03 4.29076140E-04-1.09712567E-03 0.00000000E+00 7.16884523E-05
 2 10-1.83303691E-04-4.35803874E-04-3.26048926E-03-7.75180149E-03 1.27514850E-03
 2 11-7.75180149E-03 1.27514850E-03-3.26048926E-03 3.19969204E-11 0.00000000E+00
 2 12 0.00000000E+00 0.00000000E+00-1.73017874E-02-7.27731382E-03-1.73017874E-02
 2 13 2.84609303E-03-7.27731382E-03 2.84609303E-03 0.00000000E+00 0.00000000E+00
 2 14 0.00000000E+00 1.63829323E-03-4.18903170E-03-9.95940780E-03-4.84454487E-01
 2 15 4.17462390E-02 5.42134829E-02 1.93586093E-02 1.08661756E-02 8.07395830E-03
 2 16 5.30902858E-03 7.02786052E-03 5.64851348E-03 4.28264641E-03 7.36513349E-04
 2 17 5.01937650E-04 2.69654394E-04-2.30547105E-03-1.70087246E-03-1.10218244E-03
 2 18-2.36603282E-03-1.81834869E-03-1.26525936E-03-3.97932031E-04-3.28454123E-04
 2 19-2.59655203E-04-3.67423617E-04-3.32579988E-04-2.97392482E-04-4.51358835E-04
 2 20-3.85084604E-04-3.19458053E-04 9.17377674E-05 6.03081630E-05 6.95552153E-05
 2 21 6.38582240E-06 1.61598427E-05-1.55799459E-05 4.24297365E-04-2.86900170E-01
 2 22 2.47226590E-02 3.21059209E-02 1.14644171E-02-5.18519606E-03-7.97741334E-03
 2 23 1.19805613E-03-3.54454599E-03-4.92389303E-03 1.57491071E-03-3.31168497E-04
 2 24-5.65744196E-04-3.79330678E-06-1.09469040E-03-1.69928899E-03-2.31355300E-04
 2 25-1.78666727E-03 4.43795368E-04 9.96884696E-04-2.04559753E-04-2.74037662E-04
 2 26-1.05348941E-04-2.42116703E-04 1.56683283E-04 1.91870789E-04 2.37633870E-04
 2 27 3.03908100E-04-1.42997742E-04-6.65194614E-05-1.05430816E-05-8.87020134E-05
 2 28 4.33792590E-05 4.22186035E-05 1.04788148E-05 2.51274350E-04 1.60014603E-01
 2 29-1.37887212E-02-1.79066336E-02-6.39412012E-03 4.11479977E-03-5.33700999E-03
 2 30-1.44234723E-03 2.58099511E-03-3.18476333E-03-1.64218992E-04 2.87435131E-04
 2 31-3.90113678E-04-1.79423824E-04 8.75327377E-04 1.13997246E-03-3.27961231E-04
 2 32-1.41455123E-03 7.16793355E-05-3.13777767E-04 1.44517649E-04 1.74929541E-04
 2 33 6.24082046E-06-1.61634338E-04 7.62009169E-05-9.16032030E-05-1.61561256E-04
 2 34 1.90570833E-04-2.96604746E-05-7.08060498E-05-6.25649320E-06 8.05158034E-05
 2 35 1.73464105E-05-5.04048135E-05 3.65116635E-05-1.40144794E-04 6.11340055E-01
 2 36-5.26801768E-02-6.84127706E-02-2.44289063E-02-1.19365718E-02 1.07143616E-02
 2 37 7.94943186E-03-7.99141141E-03 7.38764319E-03 6.02177613E-03-7.80246713E-04
 2 38 6.77568165E-04 4.45284909E-04 2.52483409E-03 2.26018901E-03 1.66149899E-03
 2 39-2.73814885E-03-2.19046471E-03 1.94836628E-03 4.57974140E-04 4.27562248E-04
 2 40 3.58763328E-04-4.47905983E-04-4.13062355E-04 3.97660069E-04 5.27431452E-04
 2 41-4.98421875E-04-4.32795325E-04 8.74511768E-05 5.60215724E-05-7.77414231E-05
 2 42 3.24186687E-05-2.43460506E-05 1.04529006E-05-5.35426921E-04
 3  1-1.57071871E-11-4.00565694E-11 8.61914440E-11 1.80453629E-11-1.06416060E-01
 3  2 1.26415962E-01-7.06770117E-02 2.01147640E-02-2.38951454E-02 1.33593690E-02
 3  3-6.38931796E-02 7.59013042E-02-4.24351268E-02-9.38475023E-02 1.11485261E-01
 3  4-6.23295113E-02-0.00000000E+00-0.00000000E+00-0.00000000E+00-1.51530789E-02
 3  5 2.71034527E-02-2.28154943E-02-0.00000000E+00-0.00000000E+00-0.00000000E+00
 3  6-5.72213195E-03 1.02348528E-02-8.61562653E-03-0.00000000E+00-0.00000000E+00
 3  7-0.00000000E+00-1.52863221E-02 2.73417771E-02-2.30161141E-02 7.08624491E-03
 3  8-8.41803827E-03 4.70638186E-03 2.01317281E-03-1.12553064E-03-1.69467459E-03
 3  9-1.12553064E-03-1.69467459E-03 2.01317281E-03-0.00000000E+00-2.83139955E-04
 3 10 3.36353455E-04-1.88049493E-04 5.98284090E-03-3.34490448E-03-5.03631304E-03
 3 11-3.34490448E-03-5.03631304E-03 5.98284090E-03-0.00000000E+00-0.00000000E+00
 3 12-0.00000000E+00-0.00000000E+00-7.46572604E-03 1.33535207E-02-7.46572604E-03
 3 13-1.12408990E-02 1.33535207E-02-1.12408990E-02-0.00000000E+00-0.00000000E+00
 3 14-0.00000000E+00-6.47058564E-03 7.68667160E-03-4.29748721E-03-1.19327035E-01
 3 15 1.02826066E-02 1.33534405E-02 4.76826103E-03-6.17326329E-04 6.16625598E-03
 3 16 4.23934122E-04 1.03921338E-04 3.45499084E-03 6.18300907E-04-9.53015355E-05
 3 17 4.74590921E-04-7.82467620E-06 1.45340163E-04-1.32350839E-03-8.01238815E-05
 3 18-7.57836922E-04 3.79616441E-04-9.64092376E-04-1.60569200E-05-1.84850772E-04
 3 19-4.19662928E-05-1.01637847E-04-2.92731400E-05-1.14759805E-04-3.29957629E-05
 3 20-1.94006405E-04-5.77104352E-05 6.47453842E-06-5.87997807E-05 6.03661781E-05
 3 21 7.22024298E-05-5.05275683E-05 2.65830024E-05 1.04509604E-04-2.13512712E-01
 3 22 1.83987412E-02 2.38934061E-02 8.53188336E-03-7.54349760E-03-7.59915292E-04
 3 23 2.38387471E-03-4.45807498E-03-1.10700548E-03 1.90923661E-03-5.56006546E-04
 3 24 1.38859099E-05 1.22543808E-04-1.61251077E-03-1.43662218E-04-4.95298025E-04
 3 25-1.03405431E-03 1.35573222E-03 1.20234053E-05-2.43918452E-04-7.51245996E-05
 3 26-1.15533097E-04-1.61378969E-04 1.81844096E-04 9.63574309E-05 2.64304779E-04
 3 27 1.03294137E-04-1.41839368E-04-6.18134992E-05 8.02734268E-05-7.92185955E-06
 3 28-5.07287837E-05-3.92832058E-05 3.78273650E-05 1.86999777E-04 7.14658610E-01
 3 29-6.15833065E-02-7.99747622E-02-2.85574749E-02 1.17711233E-02-1.11884244E-02
 3 30 1.28123838E-02 8.26370538E-03-7.97585382E-03 8.77808495E-03 7.28735382E-04
 3 31-6.79782524E-04 8.16212242E-04 2.47890467E-03 2.35273291E-03 2.70436872E-03
 3 32-2.50375985E-03 2.82543776E-03-2.71001530E-03 4.81060121E-04 4.66560996E-04
 3 33 5.06969493E-04-4.79251272E-04 4.99716399E-04-4.92373230E-04-5.64760379E-04
 3 34 5.50929820E-04-5.89475052E-04-4.48832304E-05 6.33431578E-05 4.02540240E-05
 3 35 5.20902755E-05 7.16153702E-05-6.49916944E-05-6.25915898E-04-3.81818863E-01
 3 36 3.29019587E-02 4.27279156E-02 1.52573305E-02 4.84495206E-03-4.26225309E-03
 3 37-1.00045750E-02 3.70170906E-03-3.41385750E-03-6.25054743E-03 2.68030373E-04
 3 38-2.19077514E-04-7.01493111E-04-1.01173407E-03-8.85562306E-04-2.12894681E-03
 3 39 7.11868617E-04 1.84932198E-03-1.73389952E-03-2.21084749E-04-2.06585625E-04
 3 40-3.49470104E-04 2.16234456E-04 2.88599163E-04-2.81255994E-04-2.67459836E-04
 3 41 2.53629277E-04 3.89925247E-04 2.34048066E-05-4.18695124E-05-2.80340131E-05
 3 42-3.06166302E-05 8.28597334E-05-7.62360576E-05 3.34406517E-04
 4  1 6.30555161E-11 1.04308161E-10-1.61173632E-10-1.55724736E-10-1.42303475E-01
 4  2-1.07579392E-01 2.18405220E-02 2.68982033E-02 2.03346571E-02-4.12829553E-03
 4  3-8.54403133E-02-6.45916551E-02 1.31132500E-02-1.25496337E-01-9.48734361E-02
 4  4 1.92609879E-02 0.00000000E+00 0.00000000E+00 0.00000000E+00 4.68258555E-03
 4  5-2.30649115E-02-3.05097194E-02 0.00000000E+00 0.00000000E+00 0.00000000E+00
 4  6 1.76824608E-03-8.70981191E-03-1.15211332E-02 3.28804422E-11 3.28518974E-11
 4  7 3.28832942E-11 4.72376018E-03-2.32677245E-02-3.07779956E-02 9.47598773E-03
 4  8 7.16371121E-03-1.45436025E-03-1.71320065E-03 3.47810074E-04-2.26618129E-03
 4  9 3.47810074E-04-2.26618129E-03-1.71320065E-03 0.00000000E+00-3.78625176E-04
 4 10-2.86235217E-04 5.81108200E-05-5.09136964E-03 1.03363821E-03-6.73474332E-03
 4 11 1.03363821E-03-6.73474332E-03-5.09136964E-03 0.00000000E+00 1.33656009E-11
 4 12 1.36524843E-11 1.34504842E-11 2.30704935E-03-1.13637837E-02 2.30704935E-03
 4 13-1.50317442E-02-1.13637837E-02-1.50317442E-02 0.00000000E+00 0.00000000E+00
 4 14 0.00000000E+00-8.65270547E-03-6.54132160E-03 1.32800414E-03-5.36960710E-01
 4 15 4.62707865E-02 6.00892572E-02 2.14567372E-02 7.02776639E-03 8.03945573E-03
 4 16 1.18101168E-02 5.31161241E-03 5.81138394E-03 7.67407931E-03 3.94932220E-04
 4 17 4.79924794E-04 7.96700092E-04-1.46920535E-03-1.68826637E-03-2.50472732E-03
 4 18-1.44869432E-03-2.19559622E-03-2.39599416E-03-3.16246430E-04-3.41419993E-04
 4 19-4.35244226E-04-3.32570342E-04-3.80088191E-04-3.92837494E-04-3.81219028E-04
 4 20-4.05231820E-04-4.94729748E-04-5.52822292E-06 3.73337656E-05 2.50906399E-06
 4 21 5.68711626E-05 7.53267750E-05 8.68268850E-05 4.70283629E-04 6.39814433E-01
 4 22-5.51338608E-02-7.15992313E-02-2.55667312E-02 9.16808321E-03 1.01797726E-02
 4 23-1.26777824E-02 6.72135482E-03 7.22112635E-03-8.45513579E-03 5.37298708E-04
 4 24 6.22291283E-04-8.32150455E-04 1.92258858E-03 2.14164960E-03 2.68254348E-03
 4 25 2.00242231E-03-2.49723430E-03-2.69763224E-03 3.96583695E-04 4.21757259E-04
 4 26 4.83914492E-04 4.13847470E-04-4.45327376E-04-4.58076680E-04-4.73090469E-04
 4 27-4.97103261E-04 5.56394378E-04 1.55740618E-05-4.39695254E-05 2.36113488E-05
 4 28-6.35069224E-05 7.18520567E-05 8.33521667E-05-5.60365495E-04 3.03363220E-02
 4 29-2.61413070E-03-3.39482390E-03-1.21222741E-03-3.51474635E-03-3.76561393E-03
 4 30 1.26760407E-03-1.63232567E-03-1.96415067E-03 7.30141225E-04-3.06319344E-04
 4 31-3.05307700E-04 9.54485271E-05-7.64014737E-04 8.12401108E-04 2.71507228E-04
 4 32 3.70779294E-05-5.31889920E-04-9.10221909E-04-7.94691198E-05 1.01685910E-04
 4 33 3.95286770E-05-1.12230825E-05-2.02568234E-05-7.14902351E-05 7.13101757E-05
 4 34 1.01491661E-04-4.22005442E-05 3.82138400E-05-6.66093036E-05 1.96244137E-05
 4 35 7.39865123E-05-2.86162942E-05-5.41412680E-05-2.65693102E-05-1.33190046E-01
 4 36 1.14772050E-02 1.49047980E-02 5.32222144E-03-1.37442955E-03-5.90593073E-03
 4 37-2.13526965E-03-2.22583255E-04-3.37389309E-03-1.51119772E-03-1.63952858E-04
 4 38-4.47674187E-04-1.30898889E-04 3.10631507E-04-1.26578434E-03-4.49323387E-04
 4 39 5.16650064E-04-2.30251839E-04-1.21185999E-03-8.68144840E-07-1.82023175E-04
 4 40-8.81989414E-05 9.25002110E-05 4.49823617E-05-1.36729420E-04-2.05612684E-05
 4 41 1.93363105E-04 1.03865177E-04 1.71115565E-05 5.99735452E-05 4.07266972E-05
 4 42-8.06222707E-05-3.20910139E-05-5.06665484E-05 1.16651175E-04
 5  1 3.57527195E-10 6.38841398E-10-1.18322609E-09-6.57603367E-10-3.58626614E-01
 5  2 2.55163518E+00 6.17267671E+00-2.04695450E-02 1.45641202E-01 3.52321548E-01
 5  3 9.41004393E-02-6.69526416E-01-1.61965556E+00 8.98976881E-02-6.39623762E-01
 5  4-1.54731786E+00-1.03254248E-11-1.04354081E-11-1.05218430E-11-3.22805693E-02
 5  5-1.33440062E-02 1.87547021E-03 4.42976808E-11 4.49631716E-11 4.50078678E-11
 5  6 1.77259567E-02 7.32748157E-03-1.02986114E-03 1.18207237E-10 1.18291382E-10
 5  7 1.17907661E-10 3.01326561E-01 1.24561109E-01-1.75067851E-02 9.21324082E-03
 5  8-6.55523837E-02-1.58578183E-01-2.65658926E-02-6.42657177E-02 3.73377674E-03
 5  9-6.42657177E-02 3.73377674E-03-2.65658926E-02 0.00000000E+00 5.62182901E-02
 5 10-3.99994204E-01-9.67628492E-01-1.32098628E-01-3.19560621E-01 1.85661665E-02
 5 11-3.19560621E-01 1.85661665E-02-1.32098628E-01-6.20462069E-11 7.50800491E-11
 5 12 7.47482001E-11 7.46031989E-11 7.94626793E-03 3.28479488E-03 7.94626793E-03
 5 13-4.61670568E-04 3.28479488E-03-4.61670568E-04 3.71534517E-11 3.71283848E-11
 5 14 3.70410742E-11-2.16377016E-03 1.53952658E-02 3.72427843E-02-1.89234992E-01
 5 15-1.46567331E+00-3.85436349E-01-7.48333764E-03 8.48546185E-02 9.40029985E-02
 5 16 1.05385708E-01 2.78567293E-02 4.75386156E-02 7.20274530E-02-6.61242157E-03
 5 17-1.04921646E-02-1.53194660E-02-5.91090770E-03-3.84468748E-03-1.27382968E-03
 5 18-1.37385873E-02-1.34547509E-02-1.32266292E-02 3.72389561E-04 2.51385809E-04
 5 19 1.00829040E-04 1.63514510E-03 1.79502007E-03 1.92351295E-03-6.60769787E-03
 5 20-1.46115931E-02-2.45702976E-02-7.90048587E-03-1.20752380E-02-4.63787862E-03
 5 21-1.21679145E-02-4.75318969E-03-8.10847343E-03-2.33271808E-03-9.00216115E-02
 5 22-6.97240355E-01-1.83357215E-01-3.55992359E-03-4.20301042E-02-3.28817241E-02
 5 23 6.03065149E-02-1.68309620E-02 2.85092436E-03 5.61509549E-02 3.85114710E-03
 5 24-2.85959638E-05-1.16020033E-02-2.43615627E-03-4.50237649E-03 1.69168815E-03
 5 25-6.78930389E-03 6.10544615E-03 6.33356787E-03 1.55146195E-04 2.76149947E-04
 5 26-8.65921530E-05 6.34974468E-04-1.02016727E-03-8.91674397E-04 4.59887560E-03
 5 27-3.40501968E-03-2.05888625E-02-5.66060068E-04-9.49232775E-03 2.69654718E-03
 5 28-9.39965126E-03 2.97437050E-03-3.80913239E-04-1.10970512E-03 7.37970699E-02
 5 29 5.71577140E-01 1.50310853E-01 2.91832064E-03 3.24035446E-02-2.55098431E-02
 5 30 5.29346339E-02 9.38391905E-03 5.44723651E-03 5.35546428E-02-2.28703548E-03
 5 31-6.36519304E-04-1.09940799E-02 2.46043345E-03 4.01742006E-03-2.17664457E-03
 5 32-5.65287515E-03 4.96901741E-03-5.14091703E-03-1.54319042E-04-2.45500621E-04
 5 33 1.17241479E-04 4.71414775E-04-8.56607577E-04 7.59782621E-04-1.97517157E-03
 5 34-4.05611089E-03-1.99377713E-02-1.01502393E-03-9.04336389E-03-1.44349223E-03
 5 35-8.97352813E-03-1.72131555E-03-8.07036369E-04 9.09703627E-04 2.05459534E-01
 5 36 1.59133653E+00 4.18482711E-01 8.12494054E-03-9.44811783E-02 1.01374880E-01
 5 37 1.12757589E-01-3.53037722E-02 5.01349277E-02 7.46237651E-02 8.17653319E-03
 5 38-1.11000880E-02-1.59273893E-02 5.88663053E-03 4.32964391E-03 1.75878612E-03
 5 39-1.48750160E-02-1.45911796E-02 1.44192800E-02-3.73216710E-04-2.82035131E-04
 5 40-1.31478363E-04 1.79870479E-03 1.95857977E-03-2.05540472E-03 9.23140188E-03
 5 41-1.52626843E-02-2.52213888E-02-8.34944972E-03-1.25242019E-02 5.89093356E-03
 5 42-1.25940376E-02 6.00624464E-03-8.53459655E-03 2.53271958E-03
 6  1-1.19614380E-10-1.67352221E-10 5.02409006E-10-2.26207982E-10-8.20653787E-01
 6  2 6.11789905E+00-2.57667062E+00-4.68409454E-02 3.49194970E-01-1.47070165E-01
 6  3 2.15332267E-01-1.60528239E+00 6.76095493E-01 2.05715012E-01-1.53358663E+00
 6  4 6.45899448E-01 0.00000000E+00 0.00000000E+00 0.00000000E+00 1.34749313E-02
 6  5-3.19941045E-02 4.29168296E-03 0.00000000E+00 0.00000000E+00 0.00000000E+00
 6  6-7.39937537E-03 1.75686528E-02-2.35665566E-03 5.63088025E-11 5.64079939E-11
 6  7 5.58499354E-11-1.25783244E-01 2.98652524E-01-4.00611915E-02 2.10828775E-02
 6  8-1.57170927E-01 6.61955528E-02-6.36954099E-02 2.68265446E-02 8.54408988E-03
 6  9 2.68265446E-02 8.54408988E-03-6.36954099E-02 0.00000000E+00 1.28645647E-01
 6 10-9.59041549E-01 4.03918758E-01-3.16724771E-01 1.33394717E-01 4.24853992E-02
 6 11 1.33394717E-01 4.24853992E-02-3.16724771E-01 2.37750314E-11-2.03978761E-11
 6 12-2.05830643E-11-2.02534198E-11-3.31702374E-03 7.87575105E-03-3.31702374E-03
 6 13-1.05645171E-03 7.87575105E-03-1.05645171E-03 0.00000000E+00 0.00000000E+00
 6 14 0.00000000E+00-4.95140657E-03 3.69122839E-02-1.55463169E-02-6.15404361E-02
 6 15-4.76646383E-01-1.25346379E-01-2.43362952E-03 2.53821682E-02 4.71934425E-02
 6 16 1.98621461E-02 4.29791069E-03 5.12228329E-02-7.57790195E-03-1.21184713E-03
 6 17-1.04618061E-02 1.12914301E-03-2.42210784E-03 2.50410815E-03-3.66884018E-03
 6 18-4.10855365E-03-4.79008004E-03-4.24619955E-03 1.50375693E-04-1.38117572E-04
 6 19 2.23387896E-04 7.34153742E-04 3.50274109E-04 6.56622694E-04-2.12630657E-04
 6 20-1.92952611E-02 4.61682313E-03-8.64358723E-03 1.38051035E-03-8.64983665E-04
 6 21 1.15955404E-03-5.88107481E-04-8.58766735E-03-7.58614917E-04 1.78110981E-01
 6 22 1.37951500E+00 3.62778815E-01 7.04343626E-03 7.83478674E-02 1.00159142E-01
 6 23-8.90273241E-02 2.29519674E-02 6.98768896E-02-4.59278224E-02-5.57967186E-03
 6 24-1.48296309E-02 1.01087303E-02 5.90643653E-03 9.80220538E-04 3.49441283E-03
 6 25 1.26775451E-02-1.29551254E-02-1.24112449E-02-3.70585812E-04-8.20925465E-05
 6 26-2.29330821E-04-1.68177350E-03 1.52542241E-03 1.83177099E-03-4.89060911E-03
 6 27-2.39732395E-02 1.42340396E-02-1.17052087E-02 7.62247423E-03-3.92660513E-03
 6 28 7.84343054E-03-3.81383568E-03-1.18133956E-02 2.19559132E-03-2.15237985E-01
 6 29-1.66707312E+00-4.38399589E-01-8.51163145E-03-1.00376552E-01 1.17028392E-01
 6 30-1.05896574E-01-3.99932123E-02 7.58180922E-02-5.18690250E-02 9.15886558E-03
 6 31-1.62207562E-02 1.14998557E-02-5.85088248E-03-2.08995784E-03-4.60415014E-03
 6 32 1.52780620E-02-1.55556422E-02 1.51404161E-02 3.72478600E-04 1.52228121E-04
 6 33 2.99466396E-04-2.05605102E-03 1.89969993E-03-2.13358207E-03 1.08944933E-02
 6 34-2.54631470E-02 1.57239470E-02-1.27325833E-02 8.64984887E-03 6.79400049E-03
 6 35 8.81853819E-03 6.68123104E-03-1.27885032E-02-2.65325948E-03 9.86674396E-02
 6 36 7.64204501E-01 2.00967153E-01 3.90182469E-03-4.74108531E-02 6.40626928E-02
 6 37 3.67313963E-02-2.13391557E-02 5.71640355E-02-1.63669932E-03 4.79104085E-03
 6 38-1.18529315E-02-2.61982377E-04 2.36655380E-03-1.39437084E-03 4.77857749E-03
 6 39-6.70907050E-03-7.39059689E-03 6.97537077E-03-1.52268478E-04 6.79820003E-05
 6 40-2.93523468E-04 1.10843127E-03 7.24551632E-04-9.58433773E-04 6.21651480E-03
 6 41-2.07851685E-02 3.12691569E-03-9.67096187E-03 3.53135704E-04 3.73237902E-03
 6 42 1.84446383E-04 3.45550284E-03-9.56277501E-03 1.21628309E-03
 7  1 1.27845901E-10 3.32562032E-10-8.70909774E-10 1.50829067E-10 6.62867311E+00
 7  2 8.95467496E-01 1.49549750E-02 3.78348726E-01 5.11111320E-02 8.53594023E-04
 7  3-1.73930497E+00-2.34962720E-01-3.92405267E-03-1.66162344E+00-2.24468722E-01
 7  4-3.74879508E-03-0.00000000E+00-0.00000000E+00-0.00000000E+00-7.82083908E-05
 7  5-4.68292799E-03-3.46652436E-02 4.53546066E-11 4.55783489E-11 4.53372231E-11
 7  6 4.29459121E-05 2.57149675E-03 1.90354328E-02-4.09603143E-11-4.08772307E-11
 7  7-4.13313137E-11 7.30044888E-04 4.37133117E-02 3.23586568E-01-1.70292888E-01
 7  8-2.30048673E-02-3.84198446E-04-9.32299940E-03-1.55701045E-04-6.90132425E-02
 7  9-1.55701046E-04-6.90132425E-02-9.32299940E-03-0.00000000E+00-1.03911047E+00
 7 10-1.40373440E-01-2.34434115E-03-4.63585187E-02-7.74221847E-04-3.43167639E-01
 7 11-7.74221848E-04-3.43167639E-01-4.63585187E-02-4.56211463E-11 2.97482380E-11
 7 12 2.95673485E-11 2.97843266E-11 1.92519751E-05 1.15276160E-03 1.92519768E-05
 7 13 8.53328549E-03 1.15276160E-03 8.53328549E-03 1.23637896E-11 1.24603191E-11
 7 14 1.24050045E-11 3.99940342E-02 5.40279435E-03 9.02306932E-05-1.70537218E-01
 7 15-1.32085428E+00-3.47352474E-01-6.74393021E-03 9.83234942E-02 8.03012173E-02
 7 16 7.75333346E-02 7.21192350E-02 3.33459873E-02 2.73911459E-02-1.52267725E-02
 7 17-7.58369211E-03-6.40985877E-03-3.91200420E-04-4.46164708E-03-5.08679110E-03
 7 18-1.19462491E-02-1.20152683E-02-1.24646673E-02 4.65480451E-05 2.84925016E-04
 7 19 3.21535234E-04 1.71852634E-03 1.67965025E-03 1.42651974E-03-2.50740515E-02
 7 20-9.30640560E-03-6.88479184E-03-5.72249399E-03-4.70733812E-03-1.21498189E-02
 7 21-4.52476576E-03-1.21217792E-02-5.51188195E-03-2.10222881E-03 1.69860644E-01
 7 22 1.31561403E+00 3.45974418E-01 6.71717493E-03 9.80160818E-02 7.99938049E-02
 7 23-7.71319006E-02 7.20109670E-02 3.32377193E-02-2.70805991E-02-1.52014216E-02
 7 24-7.55834129E-03 6.34463424E-03 3.70977400E-04 4.44142405E-03 5.08780347E-03
 7 25 1.18965147E-02-1.19678785E-02-1.24172775E-02-4.52699490E-05-2.83646920E-04
 7 26-3.21500743E-04-1.71302636E-03 1.67282970E-03 1.41969919E-03-2.50469005E-02
 7 27-9.27925465E-03 6.77538159E-03-5.70472436E-03 4.65508487E-03-1.21320493E-02
 7 28 4.47251251E-03-1.21030571E-02-5.49315985E-03 2.09388861E-03 1.30025585E-01
 7 29 1.00708134E+00 2.64837842E-01 5.14188916E-03 7.99163833E-02-5.62643194E-02
 7 30 5.91262237E-02 6.56364112E-02-1.47512020E-02 2.09083222E-02-1.37088272E-02
 7 31 3.67820641E-03-4.89191346E-03-8.19704481E-04 4.52226562E-03 3.87588620E-03
 7 32-9.10865990E-03 9.03729617E-03-9.62707813E-03 2.99813342E-05-2.82859678E-04
 7 33-2.45005854E-04 1.31012835E-03-1.35032501E-03 1.01812175E-03-2.34483188E-02
 7 34 2.75518610E-03-5.25905916E-03 2.59369670E-03-3.64333619E-03-1.10287852E-02
 7 35-3.40373200E-03-1.10577773E-02 2.38308466E-03 1.60283799E-03-1.29349011E-01
 7 36-1.00184110E+00-2.63459785E-01-5.11513390E-03 7.96089708E-02-5.59569069E-02
 7 37-5.87247896E-02 6.55281433E-02-1.46429341E-02-2.05977754E-02-1.36834763E-02
 7 38 3.65285559E-03 4.82668894E-03 8.39927496E-04-4.50204260E-03-3.87689857E-03
 7 39 9.05892554E-03 8.98990631E-03-9.57968827E-03-3.12594308E-05 2.81581581E-04
 7 40 2.44971363E-04-1.30462837E-03-1.34350445E-03 1.01130120E-03-2.34211678E-02
 7 41 2.72803515E-03 5.14964891E-03 2.57592708E-03 3.59108295E-03-1.10110155E-02
 7 42 3.35147875E-03-1.10390552E-02 2.36436257E-03-1.59449779E-03
 8  1-1.65388280E+00 2.30727198E+00-8.30929410E+00 1.25905698E+01-1.83818771E-10
 8  2 2.87459444E-11-1.05490912E-10-0.00000000E+00-0.00000000E+00-0.00000000E+00
 8  3 6.03778844E-11-0.00000000E+00 3.20061736E-11 1.33907192E-10 3.78910482E-11
 8  4-1.60228177E-11 5.23708507E-02 5.23708507E-02 5.23708507E-02-0.00000000E+00
 8  5-0.00000000E+00-0.00000000E+00 1.21162218E+00 1.21162218E+00 1.21162218E+00
 8  6-0.00000000E+00-0.00000000E+00-0.00000000E+00-8.73504134E-01-8.73504134E-01
 8  7-8.73504134E-01-3.54726653E-11 5.62020039E-11 7.66126857E-11 2.03794258E-11
 8  8-0.00000000E+00-0.00000000E+00-0.00000000E+00-0.00000000E+00-0.00000000E+00
 8  9-0.00000000E+00-0.00000000E+00-0.00000000E+00 1.03824687E-01 6.51519216E-11
 8 10 1.24529084E-11 2.34104914E-11 2.22855234E-11-0.00000000E+00 5.94998816E-11
 8 11-0.00000000E+00 5.95239502E-11 2.23930361E-11 2.62629618E-01-3.26422801E-02
 8 12-3.26422801E-02-3.26422802E-02-0.00000000E+00-0.00000000E+00-0.00000000E+00
 8 13 1.06720709E-11-0.00000000E+00 1.07001024E-11 3.99565680E-02 3.99565680E-02
 8 14 3.99565680E-02-0.00000000E+00-0.00000000E+00-0.00000000E+00 3.90345025E-02
 8 15-2.16136803E+00 5.93340999E-01-3.57241339E-02 2.27660852E-01 2.27660852E-01
 8 16 2.27660852E-01-1.32609789E-01-1.32609789E-01-1.32609789E-01 3.83119698E-02
 8 17 3.83119698E-02 3.83119698E-02-9.48745476E-02-9.48745476E-02-9.48745476E-02
 8 18-2.46136220E-02-2.46136220E-02-2.46136220E-02-1.23626041E-02-1.23626041E-02
 8 19-1.23626041E-02 1.05252228E-03 1.05252228E-03 1.05252228E-03 6.32264665E-02